Pt   Pd   Ni   Co   Fe   
1.0
8.9564487019592498 -5.1570620181841038 -0.0271120673332781
0.0040054640884313 10.3273037819205662 0.0160501656895423
-0.0007114039856745 0.0043944844826606 22.9221716207438106
Pt   Pd   Ni   Co   Fe   
14   14   18   17   17   
Selective dynamics
Direct
0.43094070178936456 0.034303237727520274 0.4669303839752238    T   T   T
0.02387460988127798 0.715859935814946 0.2789226121815897    T   T   T
0.7727589328909839 0.44862021102123173 0.28073897655124935    T   T   T
0.09852792613826819 0.11889278156441324 0.37497368595827296    T   T   T
0.689901232966779 0.544249328228715 0.4691070310522012    T   T   T
0.5994503153014356 0.11258683362688297 0.0951261116985069    F   F   F
0.35263027463237523 0.6196771730722787 0.3751479519870341    T   T   T
0.6832928838763485 0.28217749910959605 0.47175607497922145    T   T   T
0.5215071968080741 0.9488274118807625 0.28044431412312376    T   T   T
0.3453250876325626 0.11793979158145922 0.09755867419496665    F   F   F
0.8568733368732762 0.11179706749067832 0.3729019212940839    T   T   T
0.273763358080808 0.9526791455506378 0.27968941016258947    T   T   T
0.25786659655562094 0.18886710295879827 0.27766430144692045    T   T   T
0.43308520202894346 0.5402342936223018 0.18551882827389996    F   F   F
0.8564580148638488 0.11476580070072108 0.09764292190943098    F   F   F
0.6838715037444815 0.7789665033084058 0.4682576382798249    T   T   T
0.6027153647278105 0.6189377897291829 0.0930934382973257    F   F   F
0.85373647298091 0.6174959719202534 0.09365225724986924    F   F   F
0.9434660616369686 0.2912806827476821 0.18856136298788678    F   F   F
0.8537927466403591 0.6265384407665465 0.37698804209349224    T   T   T
0.5986938072626695 0.8631469105920145 0.37361890416323446    T   T   T
0.680272333835099 0.021336263017745456 0.19162446307408962    F   F   F
0.27567890418377206 0.7083060001302918 0.2776438298755636    T   T   T
0.17928925372398394 0.02815318690398771 0.46700044955626496    T   T   T
0.5222384654999486 0.7157745957104945 0.2788549468583733    T   T   T
0.4326317473865305 0.7790907336196439 0.4645804378645392    T   T   T
0.680039111710718 0.2844676082507914 0.18712492245782691    F   F   F
0.10646012822020302 0.620253288931696 0.09463624733369218    F   F   F
0.6870595341595145 0.5364616845102412 0.1860340161837509    F   F   F
0.08830541267821018 0.8690757932776706 0.3763671958986197    T   T   T
0.349239255731939 0.6199243734811806 0.09342855591871936    F   F   F
0.17723480431651292 0.024237917080658537 0.18844567692402728    F   F   F
0.11020298096717641 0.3708411304692241 0.09724450189200876    F   F   F
0.012858217241298646 0.9568052857787583 0.27939306215623266    T   T   T
0.6007429273837703 0.36688802160475786 0.37800193945527566    T   T   T
0.5942866316446297 0.8600869348235601 0.09650370834095484    F   F   F
0.8552109364826276 0.35653599291791294 0.37546427620649675    T   T   T
0.10277498513261088 0.11661357005462482 0.09857003873332755    F   F   F
0.5989920460240491 0.36571740911053013 0.0945140882602929    F   F   F
0.004599401559464877 0.1945153834938687 0.2809842242801452    T   T   T
0.42308874761988285 0.026223785731869367 0.18992356219532228    F   F   F
0.33873818740858824 0.10692730361272848 0.37482165752345054    T   T   T
0.10527568046854767 0.6171170370327339 0.3740600343408923    T   T   T
0.598865442098399 0.6222184143837216 0.3772731259878013    T   T   T
0.5969679641861005 0.10450287833492561 0.371682981091164    T   T   T
0.5172425832725661 0.19485828407754968 0.2795374702260594    T   T   T
0.937283796700182 0.28616586629762386 0.4693145645164239    T   T   T
0.18412229053738896 0.7873012729454024 0.18613459754992678    F   F   F
0.4229658214819622 0.782239781058368 0.18313809213176016    F   F   F
0.336026151757542 0.36663103771901207 0.37620475458060576    T   T   T
0.4290623384433832 0.2868421943525444 0.1847291856089614    F   F   F
0.35301580382632036 0.8633139704450405 0.37432243163109785    T   T   T
0.1849098585520374 0.5405129659411091 0.1863009020113945    F   F   F
0.9434841477441887 0.02971612109372176 0.19212990127657065    F   F   F
0.3426046794588499 0.3626376782549678 0.09582860489648784    F   F   F
0.18536481957507606 0.2806070146397414 0.1835735681258476    F   F   F
0.9385055717059524 0.03373852307182887 0.465629290358185    T   T   T
0.1017496634714965 0.8679590597872067 0.09925364404466833    F   F   F
0.7715865070918648 0.19327919215297373 0.28155670142436523    T   T   T
0.18756398235738742 0.5272506643276206 0.4662516164585554    T   T   T
0.1891615102801916 0.7862178605738323 0.4682768450775817    T   T   T
0.9366757683658542 0.7919420780349964 0.18513686872332163    F   F   F
0.25488605471349 0.4424600472310759 0.2812433102533025    T   T   T
0.9325432656347477 0.782512922944905 0.46901905996113297    T   T   T
0.3503115372296595 0.8653458282907662 0.09896824966699327    F   F   F
0.17961531318709986 0.28185789093343777 0.4688594550574533    T   T   T
0.8492976159072775 0.8665910679903809 0.37625350395554097    T   T   T
0.6948602024961809 0.7859938235896412 0.1848272510342034    F   F   F
0.7672167042588722 0.9536229075562862 0.2838502654498288    T   T   T
0.10724539761349165 0.3644589975437425 0.3782835803094538    T   T   T
0.76805237237509 0.7130920779845246 0.2793198035592972    T   T   T
0.8480251143589544 0.36237529373412525 0.09120744305246245    F   F   F
0.6824842308936206 0.033649918812728934 0.4670345679806444    T   T   T
0.42161702319931954 0.5353317156839416 0.46475112096547183    T   T   T
0.9394842342569776 0.5444599975312306 0.188089373086406    F   F   F
0.016986548609408486 0.44823813822973163 0.280188773897618    T   T   T
0.8556256001061078 0.8697595186514447 0.09501158611356114    F   F   F
0.9253002218771597 0.5324709146106464 0.46975599473455354    T   T   T
0.5137938921439752 0.44660652444691407 0.28039888736161417    T   T   T
0.4217110878103884 0.2826964426011763 0.46800052836385697    T   T   T
