Pt   Pd   Ni   Co   Fe                  
   1.00000000000000     
     8.9376458108602996   -5.1802149457454973   -0.0567105282974228
     0.0080191628188567   10.3804102116489076    0.0354715520566029
    -0.0291723129497411    0.0284155346846664   22.9142788501274843
   Pt   Pd   Ni   Co   Fe
    15    14    16    18    17
Selective dynamics
Direct
  0.9330084156530631  0.0354045777080856  0.1870289175416460   F   F   F
  0.9327237163952343  0.7840377064777823  0.4724613399298396   T   T   T
  0.9315069765254008  0.0318653567460689  0.4702267207092355   T   T   T
  0.8410252996659509  0.1177986802943494  0.0934599213703962   F   F   F
  0.6760018258562541  0.2846430849116739  0.4702723921422285   T   T   T
  0.3443074615683273  0.1154909290688764  0.0947751805087407   F   F   F
  0.9367774816554596  0.2843944140271855  0.4732166289874821   T   T   T
  0.1021670038014195  0.1129849063236394  0.3687077643365591   T   T   T
  0.4399995099758058  0.0403980756853457  0.1898547530128170   F   F   F
  0.1030726918496488  0.3703148540159008  0.3743353771198503   T   T   T
  0.3406660327032064  0.8601504563871463  0.3716059160104903   T   T   T
  0.5952634554786692  0.6216090427354363  0.3742453370704042   T   T   T
  0.3462913759652153  0.6156604175855875  0.0943124285703547   F   F   F
  0.5026883007124644  0.4365974704952285  0.2838709646692518   T   T   T
  0.6766496202354588  0.5217373732069248  0.1856271937009595   F   F   F
  0.4275563361170427  0.5328892528569114  0.1923482439700877   F   F   F
  0.8488912525930977  0.6115447905881222  0.3762206390901012   T   T   T
  0.0178368543807904  0.4459477589006405  0.2797208021778080   T   T   T
  0.3495858504157141  0.8641595643596247  0.0936190737977185   F   F   F
  0.4270250606833679  0.0260968929041786  0.4709821701797069   T   T   T
  0.9381560263825014  0.5360395093370551  0.4757028565030688   T   T   T
  0.7707264458925500  0.9494110366277654  0.2840921533142874   T   T   T
  0.0273899786419513  0.7062231957138887  0.2844301273006548   T   T   T
  0.3491382153613145  0.3677324052535553  0.0956898249284279   F   F   F
  0.9330791592469510  0.7826522303354082  0.1859407577148104   F   F   F
  0.8462115067867799  0.6129275593953736  0.0917738192559057   F   F   F
  0.1873547328025751  0.7755418098793783  0.1875343782363714   F   F   F
  0.5197858784884747  0.9532072956819759  0.2825701394643214   T   T   T
  0.7594468038567440  0.4356192346692682  0.2829496425536107   T   T   T
  0.1929139236182122  0.2862268467973302  0.4673433403233449   T   T   T
  0.0943078291492156  0.3633905336313816  0.0973104990022478   F   F   F
  0.0952037362692622  0.8671394584731402  0.0947058897311308   F   F   F
  0.6803355033885361  0.0286967826622113  0.4661902484930476   T   T   T
  0.1823932538411272  0.7800923966699606  0.4655187201594742   T   T   T
  0.6784346451577363  0.7871220971316433  0.1869427023785661   F   F   F
  0.1805427082220632  0.2837509013437298  0.1865445967497692   F   F   F
  0.1857880582875908  0.0356527551038964  0.4652429797356960   T   T   T
  0.9318888380500425  0.5214548661560912  0.1870970227027939   F   F   F
  0.4364554493482736  0.7746358935391348  0.4641197333631872   T   T   T
  0.3516678994674638  0.1188842079285225  0.3710186716976628   T   T   T
  0.6015861979464958  0.8630220458468543  0.0969866461002127   F   F   F
  0.3507902211833559  0.6217128790405637  0.3715349309409327   T   T   T
  0.1948605949317281  0.5389765273609007  0.4674967592568002   T   T   T
  0.5092303905456705  0.1945129848465643  0.2838725336706607   T   T   T
  0.0941549058526547  0.1111184902209743  0.0953409839586428   F   F   F
  0.5849159946440278  0.3589171290855425  0.3786265847513056   T   T   T
  0.3502382489088138  0.3650110375679237  0.3764268800880098   T   T   T
  0.2619540560112614  0.9597820479093788  0.2827974572949010   T   T   T
  0.0216877146233402  0.9503381872963960  0.2786262819599312   T   T   T
  0.6615359314390359  0.5321635093801215  0.4680782811067953   T   T   T
  0.8336999028904972  0.3451933714264725  0.3756042247565177   T   T   T
  0.2792802222917515  0.6914333830579843  0.2773699993689998   T   T   T
  0.2594998434673222  0.1889671133014183  0.2762150162124575   T   T   T
  0.4468663871895728  0.7864236982190107  0.1892278538919143   F   F   F
  0.6902598717767674  0.2810352899571029  0.1837403311208092   F   F   F
  0.1862820179240927  0.0381702572124709  0.1874480296509731   F   F   F
  0.6828534661371276  0.7870454975894572  0.4643980975573089   T   T   T
  0.9301637313136908  0.2875931055743877  0.1860969598577285   F   F   F
  0.6087236961276119  0.3579127284236421  0.0930919493248084   F   F   F
  0.0903448288001627  0.6030482925100955  0.0974592954753675   F   F   F
  0.6803804553458406  0.0307379709072109  0.1864067354572967   F   F   F
  0.2629028478418226  0.4481392867233043  0.2833712293692662   T   T   T
  0.8479868808893907  0.8656615137955700  0.3750713200890582   T   T   T
  0.7676095809323027  0.1968340747897873  0.2776515859591787   T   T   T
  0.4318350384955068  0.2782892662314111  0.1880774767582523   F   F   F
  0.1683967658858236  0.5183787557326198  0.1865195610773682   F   F   F
  0.1005904082001545  0.6108680868624843  0.3792847290899922   T   T   T
  0.4238969816125297  0.2791989878246087  0.4625702377690267   T   T   T
  0.0305522798152405  0.2057641254826438  0.2772064083843990   T   T   T
  0.6016850331801393  0.1234551038968021  0.0953277917893089   F   F   F
  0.7699717983505876  0.7023932832276808  0.2808078316363881   T   T   T
  0.6067465005787344  0.8753261679442408  0.3799315643191468   T   T   T
  0.5102575412708309  0.7005680434514860  0.2801526551675154   T   T   T
  0.6051145764275105  0.6263354802326830  0.0946819318595402   F   F   F
  0.6017276637856724  0.1276715773316601  0.3756052821097835   T   T   T
  0.8437768213333214  0.8670361397190121  0.0933483037057243   F   F   F
  0.0996603848214690  0.8717856577966768  0.3765313501810068   T   T   T
  0.8487612396209913  0.1196689461898624  0.3763066265373611   T   T   T
  0.4271361201241211  0.5303461342316866  0.4639413032640482   T   T   T
  0.8556480801139443  0.3727156443787081  0.0938074999140568   F   F   F
 
  0.00000000E+00  0.00000000E+00  0.00000000E+00
  0.00000000E+00  0.00000000E+00  0.00000000E+00
  0.00000000E+00  0.00000000E+00  0.00000000E+00
  0.00000000E+00  0.00000000E+00  0.00000000E+00
  0.00000000E+00  0.00000000E+00  0.00000000E+00
  0.00000000E+00  0.00000000E+00  0.00000000E+00
  0.00000000E+00  0.00000000E+00  0.00000000E+00
  0.00000000E+00  0.00000000E+00  0.00000000E+00
  0.00000000E+00  0.00000000E+00  0.00000000E+00
  0.00000000E+00  0.00000000E+00  0.00000000E+00
  0.00000000E+00  0.00000000E+00  0.00000000E+00
  0.00000000E+00  0.00000000E+00  0.00000000E+00
  0.00000000E+00  0.00000000E+00  0.00000000E+00
  0.00000000E+00  0.00000000E+00  0.00000000E+00
  0.00000000E+00  0.00000000E+00  0.00000000E+00
  0.00000000E+00  0.00000000E+00  0.00000000E+00
  0.00000000E+00  0.00000000E+00  0.00000000E+00
  0.00000000E+00  0.00000000E+00  0.00000000E+00
  0.00000000E+00  0.00000000E+00  0.00000000E+00
  0.00000000E+00  0.00000000E+00  0.00000000E+00
  0.00000000E+00  0.00000000E+00  0.00000000E+00
  0.00000000E+00  0.00000000E+00  0.00000000E+00
  0.00000000E+00  0.00000000E+00  0.00000000E+00
  0.00000000E+00  0.00000000E+00  0.00000000E+00
  0.00000000E+00  0.00000000E+00  0.00000000E+00
  0.00000000E+00  0.00000000E+00  0.00000000E+00
  0.00000000E+00  0.00000000E+00  0.00000000E+00
  0.00000000E+00  0.00000000E+00  0.00000000E+00
  0.00000000E+00  0.00000000E+00  0.00000000E+00
  0.00000000E+00  0.00000000E+00  0.00000000E+00
  0.00000000E+00  0.00000000E+00  0.00000000E+00
  0.00000000E+00  0.00000000E+00  0.00000000E+00
  0.00000000E+00  0.00000000E+00  0.00000000E+00
  0.00000000E+00  0.00000000E+00  0.00000000E+00
  0.00000000E+00  0.00000000E+00  0.00000000E+00
  0.00000000E+00  0.00000000E+00  0.00000000E+00
  0.00000000E+00  0.00000000E+00  0.00000000E+00
  0.00000000E+00  0.00000000E+00  0.00000000E+00
  0.00000000E+00  0.00000000E+00  0.00000000E+00
  0.00000000E+00  0.00000000E+00  0.00000000E+00
  0.00000000E+00  0.00000000E+00  0.00000000E+00
  0.00000000E+00  0.00000000E+00  0.00000000E+00
  0.00000000E+00  0.00000000E+00  0.00000000E+00
  0.00000000E+00  0.00000000E+00  0.00000000E+00
  0.00000000E+00  0.00000000E+00  0.00000000E+00
  0.00000000E+00  0.00000000E+00  0.00000000E+00
  0.00000000E+00  0.00000000E+00  0.00000000E+00
  0.00000000E+00  0.00000000E+00  0.00000000E+00
  0.00000000E+00  0.00000000E+00  0.00000000E+00
  0.00000000E+00  0.00000000E+00  0.00000000E+00
  0.00000000E+00  0.00000000E+00  0.00000000E+00
  0.00000000E+00  0.00000000E+00  0.00000000E+00
  0.00000000E+00  0.00000000E+00  0.00000000E+00
  0.00000000E+00  0.00000000E+00  0.00000000E+00
  0.00000000E+00  0.00000000E+00  0.00000000E+00
  0.00000000E+00  0.00000000E+00  0.00000000E+00
  0.00000000E+00  0.00000000E+00  0.00000000E+00
  0.00000000E+00  0.00000000E+00  0.00000000E+00
  0.00000000E+00  0.00000000E+00  0.00000000E+00
  0.00000000E+00  0.00000000E+00  0.00000000E+00
  0.00000000E+00  0.00000000E+00  0.00000000E+00
  0.00000000E+00  0.00000000E+00  0.00000000E+00
  0.00000000E+00  0.00000000E+00  0.00000000E+00
  0.00000000E+00  0.00000000E+00  0.00000000E+00
  0.00000000E+00  0.00000000E+00  0.00000000E+00
  0.00000000E+00  0.00000000E+00  0.00000000E+00
  0.00000000E+00  0.00000000E+00  0.00000000E+00
  0.00000000E+00  0.00000000E+00  0.00000000E+00
  0.00000000E+00  0.00000000E+00  0.00000000E+00
  0.00000000E+00  0.00000000E+00  0.00000000E+00
  0.00000000E+00  0.00000000E+00  0.00000000E+00
  0.00000000E+00  0.00000000E+00  0.00000000E+00
  0.00000000E+00  0.00000000E+00  0.00000000E+00
  0.00000000E+00  0.00000000E+00  0.00000000E+00
  0.00000000E+00  0.00000000E+00  0.00000000E+00
  0.00000000E+00  0.00000000E+00  0.00000000E+00
  0.00000000E+00  0.00000000E+00  0.00000000E+00
  0.00000000E+00  0.00000000E+00  0.00000000E+00
  0.00000000E+00  0.00000000E+00  0.00000000E+00
  0.00000000E+00  0.00000000E+00  0.00000000E+00
