Pt   Pd   Ni   Co   Fe                  
   1.00000000000000     
     8.9921851088557023   -5.1708264481886879    0.0003833359026629
     0.0016273277360570   10.3507253817950122    0.0119587503984177
     0.0359356605254804   -0.0006578715460419   22.8809879814014145
   Pt   Pd   Ni   Co   Fe
    13    17    15    18    17
Selective dynamics
Direct
  0.9294646498118350  0.0185783015338022  0.4733789980761295   T   T   T
  0.8371129934949001  0.0964840792606599  0.3754371904822070   T   T   T
  0.4319995354039747  0.7768692555029020  0.1882136123743408   F   F   F
  0.8567548523056914  0.1183940992257888  0.0933141844506977   F   F   F
  0.0987123978023945  0.6147703196951610  0.0925421017317802   F   F   F
  0.1072733040212968  0.6274959484756150  0.3701624686632612   T   T   T
  0.1834375352846749  0.7880405458972888  0.1901289439039004   F   F   F
  0.1042887731195959  0.3691572409984738  0.3723306631650387   T   T   T
  0.4415088751120280  0.2831421188571142  0.1886112094996335   F   F   F
  0.6042177106803663  0.3766249776269711  0.3767105263096870   T   T   T
  0.8498117320247501  0.3691587907705987  0.3765647125494899   T   T   T
  0.6045801006934042  0.8644158853993886  0.0893053286998295   F   F   F
  0.1016848427095454  0.1054803494833934  0.0958672020594449   F   F   F
  0.3508543365937982  0.3643556734538009  0.0962058378031543   F   F   F
  0.4344272594553443  0.5430518725291267  0.4704943421657753   T   T   T
  0.9287615468075948  0.2866577402942117  0.4772993230615297   T   T   T
  0.5149515607566406  0.1988712684731361  0.2829004308365943   T   T   T
  0.3537202576804481  0.3725200277596843  0.3712477142830043   T   T   T
  0.9260989873827370  0.5276565797121435  0.1917177202344078   F   F   F
  0.9283022731235349  0.7910260818724382  0.1900081586943259   F   F   F
  0.8432288827950813  0.6175555683421834  0.0959081739990282   F   F   F
  0.0947396600292343  0.1051826862808523  0.3715927272784953   T   T   T
  0.6883301347069946  0.0425362041294832  0.1877413146904061   F   F   F
  0.3505808357364018  0.6146836688761610  0.0916892431499505   F   F   F
  0.8405768130791742  0.3589738381150198  0.0965521444055994   F   F   F
  0.4300039459512314  0.2742179869599952  0.4759355601163234   T   T   T
  0.7780438795494429  0.2057101208665670  0.2810192119543733   T   T   T
  0.3517458371476181  0.8776712213036220  0.0902142817464622   F   F   F
  0.5166478399680939  0.9435117718157767  0.2843144556476219   T   T   T
  0.3467950523252372  0.1054420589578321  0.3764096857059266   T   T   T
  0.5943998155558035  0.3588170549543719  0.0948451234964622   F   F   F
  0.1808184160877033  0.2913781294399698  0.1883974378052073   F   F   F
  0.7676064531113294  0.4601610467319160  0.2829452321252152   T   T   T
  0.1863410692120624  0.0362950419474544  0.1884479339341851   F   F   F
  0.1886517297397421  0.5470073717311990  0.4636979625758089   T   T   T
  0.0156178456172164  0.7056428997499730  0.2821673589214231   T   T   T
  0.6982489769026878  0.5493175179526648  0.4648802556575198   T   T   T
  0.6771495384852386  0.5361615272507620  0.1899016231687867   F   F   F
  0.3549379889103329  0.8663829865422301  0.3742327917434620   T   T   T
  0.5217508647012924  0.4610930969085177  0.2787689500240509   T   T   T
  0.5205691060376308  0.6964773088933127  0.2799311074249282   T   T   T
  0.1850724974393557  0.7868230462806931  0.4622062423007837   T   T   T
  0.2719636907285718  0.4542667753071827  0.2768721255152138   T   T   T
  0.8452658037940118  0.8502710112005957  0.3711417370266126   T   T   T
  0.0295749642766049  0.4532445967003859  0.2767927938769634   T   T   T
  0.7828993274479438  0.9414549156735103  0.2796912493721928   T   T   T
  0.1748326716818213  0.0122132779244658  0.4644618816880421   T   T   T
  0.9415004581412703  0.2814274428625794  0.1889916062635564   F   F   F
  0.2562910177102841  0.9460271896685470  0.2814976867865937   T   T   T
  0.6022317923058509  0.6158691175231326  0.0975571144739007   F   F   F
  0.0953627756726937  0.8642572845992641  0.3711284941651973   T   T   T
  0.4360571924566088  0.0397616998906543  0.1880137328052740   F   F   F
  0.9417410343038887  0.7799433239358725  0.4607713764018436   T   T   T
  0.5964411821181183  0.1063749266252489  0.3835199597360072   T   T   T
  0.0223652721584875  0.9497850180370685  0.2802284742150649   T   T   T
  0.4341454494761852  0.7851938070402344  0.4605978954297708   T   T   T
  0.0269235656963430  0.2061623079301799  0.2759788563344704   T   T   T
  0.6836040429644470  0.2844137265013700  0.1918949457662578   F   F   F
  0.3607942169375694  0.6288845833827115  0.3695844233892515   T   T   T
  0.3588627943473952  0.1207204676622951  0.0941797534039566   F   F   F
  0.9419715151935215  0.5513843221972962  0.4645606968881866   T   T   T
  0.2684435120303185  0.6939890008384902  0.2805503301853386   T   T   T
  0.8506159641554305  0.8654236460231530  0.0939031520876910   F   F   F
  0.5918181926772191  0.8548863917678881  0.3737047844804101   T   T   T
  0.9480188349157288  0.0467756324105153  0.1906865494627681   F   F   F
  0.1796925978523163  0.5264837511039815  0.1880341969634287   F   F   F
  0.4362761960268244  0.5299262179628457  0.1883395390019658   F   F   F
  0.6864597299090049  0.7791855120362888  0.4632382726772279   T   T   T
  0.2545882540621277  0.1961369867829100  0.2768841012126851   T   T   T
  0.0988215979850366  0.3624006047328905  0.0950800351929928   F   F   F
  0.8562782995524912  0.6248210164092619  0.3739435363939597   T   T   T
  0.1004922788336913  0.8689734916428336  0.0925182511280198   F   F   F
  0.1782576301322681  0.2790185262353052  0.4679424198094160   T   T   T
  0.7634514175709557  0.6972237524372527  0.2822441018189486   T   T   T
  0.5998090145110804  0.6204328884324269  0.3723619939298206   T   T   T
  0.6784653288449962  0.2803969845936351  0.4680565027923952   T   T   T
  0.4287483670320785  0.0198180162682920  0.4674810128311765   T   T   T
  0.6719087450303945  0.0239437559246946  0.4687326806594387   T   T   T
  0.5931428396702714  0.1211140779174045  0.0946545526386799   F   F   F
  0.6830545754285851  0.7841212814646212  0.1863088948146796   F   F   F
 
  0.00000000E+00  0.00000000E+00  0.00000000E+00
  0.00000000E+00  0.00000000E+00  0.00000000E+00
  0.00000000E+00  0.00000000E+00  0.00000000E+00
  0.00000000E+00  0.00000000E+00  0.00000000E+00
  0.00000000E+00  0.00000000E+00  0.00000000E+00
  0.00000000E+00  0.00000000E+00  0.00000000E+00
  0.00000000E+00  0.00000000E+00  0.00000000E+00
  0.00000000E+00  0.00000000E+00  0.00000000E+00
  0.00000000E+00  0.00000000E+00  0.00000000E+00
  0.00000000E+00  0.00000000E+00  0.00000000E+00
  0.00000000E+00  0.00000000E+00  0.00000000E+00
  0.00000000E+00  0.00000000E+00  0.00000000E+00
  0.00000000E+00  0.00000000E+00  0.00000000E+00
  0.00000000E+00  0.00000000E+00  0.00000000E+00
  0.00000000E+00  0.00000000E+00  0.00000000E+00
  0.00000000E+00  0.00000000E+00  0.00000000E+00
  0.00000000E+00  0.00000000E+00  0.00000000E+00
  0.00000000E+00  0.00000000E+00  0.00000000E+00
  0.00000000E+00  0.00000000E+00  0.00000000E+00
  0.00000000E+00  0.00000000E+00  0.00000000E+00
  0.00000000E+00  0.00000000E+00  0.00000000E+00
  0.00000000E+00  0.00000000E+00  0.00000000E+00
  0.00000000E+00  0.00000000E+00  0.00000000E+00
  0.00000000E+00  0.00000000E+00  0.00000000E+00
  0.00000000E+00  0.00000000E+00  0.00000000E+00
  0.00000000E+00  0.00000000E+00  0.00000000E+00
  0.00000000E+00  0.00000000E+00  0.00000000E+00
  0.00000000E+00  0.00000000E+00  0.00000000E+00
  0.00000000E+00  0.00000000E+00  0.00000000E+00
  0.00000000E+00  0.00000000E+00  0.00000000E+00
  0.00000000E+00  0.00000000E+00  0.00000000E+00
  0.00000000E+00  0.00000000E+00  0.00000000E+00
  0.00000000E+00  0.00000000E+00  0.00000000E+00
  0.00000000E+00  0.00000000E+00  0.00000000E+00
  0.00000000E+00  0.00000000E+00  0.00000000E+00
  0.00000000E+00  0.00000000E+00  0.00000000E+00
  0.00000000E+00  0.00000000E+00  0.00000000E+00
  0.00000000E+00  0.00000000E+00  0.00000000E+00
  0.00000000E+00  0.00000000E+00  0.00000000E+00
  0.00000000E+00  0.00000000E+00  0.00000000E+00
  0.00000000E+00  0.00000000E+00  0.00000000E+00
  0.00000000E+00  0.00000000E+00  0.00000000E+00
  0.00000000E+00  0.00000000E+00  0.00000000E+00
  0.00000000E+00  0.00000000E+00  0.00000000E+00
  0.00000000E+00  0.00000000E+00  0.00000000E+00
  0.00000000E+00  0.00000000E+00  0.00000000E+00
  0.00000000E+00  0.00000000E+00  0.00000000E+00
  0.00000000E+00  0.00000000E+00  0.00000000E+00
  0.00000000E+00  0.00000000E+00  0.00000000E+00
  0.00000000E+00  0.00000000E+00  0.00000000E+00
  0.00000000E+00  0.00000000E+00  0.00000000E+00
  0.00000000E+00  0.00000000E+00  0.00000000E+00
  0.00000000E+00  0.00000000E+00  0.00000000E+00
  0.00000000E+00  0.00000000E+00  0.00000000E+00
  0.00000000E+00  0.00000000E+00  0.00000000E+00
  0.00000000E+00  0.00000000E+00  0.00000000E+00
  0.00000000E+00  0.00000000E+00  0.00000000E+00
  0.00000000E+00  0.00000000E+00  0.00000000E+00
  0.00000000E+00  0.00000000E+00  0.00000000E+00
  0.00000000E+00  0.00000000E+00  0.00000000E+00
  0.00000000E+00  0.00000000E+00  0.00000000E+00
  0.00000000E+00  0.00000000E+00  0.00000000E+00
  0.00000000E+00  0.00000000E+00  0.00000000E+00
  0.00000000E+00  0.00000000E+00  0.00000000E+00
  0.00000000E+00  0.00000000E+00  0.00000000E+00
  0.00000000E+00  0.00000000E+00  0.00000000E+00
  0.00000000E+00  0.00000000E+00  0.00000000E+00
  0.00000000E+00  0.00000000E+00  0.00000000E+00
  0.00000000E+00  0.00000000E+00  0.00000000E+00
  0.00000000E+00  0.00000000E+00  0.00000000E+00
  0.00000000E+00  0.00000000E+00  0.00000000E+00
  0.00000000E+00  0.00000000E+00  0.00000000E+00
  0.00000000E+00  0.00000000E+00  0.00000000E+00
  0.00000000E+00  0.00000000E+00  0.00000000E+00
  0.00000000E+00  0.00000000E+00  0.00000000E+00
  0.00000000E+00  0.00000000E+00  0.00000000E+00
  0.00000000E+00  0.00000000E+00  0.00000000E+00
  0.00000000E+00  0.00000000E+00  0.00000000E+00
  0.00000000E+00  0.00000000E+00  0.00000000E+00
  0.00000000E+00  0.00000000E+00  0.00000000E+00
