Pt   Pd   Ni   Co   Fe   
1.0
8.9645668151198556 -5.0970749171098131 -0.0554421495051436
0.0644264900245795 10.3118447725463493 0.0416762950224090
-0.0230493368417172 0.0365266452305495 22.9434983393530345
Pt   Pd   Ni   Co   Fe   
15   16   18   14   17   
Selective dynamics
Direct
0.5949166957896466 0.8709108802861855 0.09532310407975848    F   F   F
0.9390975243653148 0.28677508850645744 0.4704739936675535    T   T   T
0.6813943033309717 0.04298249312591249 0.4704329506585115    T   T   T
0.014709859839817537 0.20617823611105063 0.28359106767917136    T   T   T
0.5903955667690639 0.8604703728804137 0.3760226876282993    T   T   T
0.25891602836022526 0.4505173015256268 0.2796385573723228    T   T   T
0.34285792999468023 0.612947671885856 0.09647611663670955    F   F   F
0.606387660332008 0.6171515284148732 0.09367266735715009    F   F   F
0.9424020208950509 0.028484128700739204 0.47224468103297373    T   T   T
0.3433541004815807 0.8637813761870095 0.3723026867187641    T   T   T
0.19072252160474912 0.28844948406313903 0.1835743763712116    F   F   F
0.93138361944651 0.7712608402461589 0.18437800856117081    F   F   F
0.9301956363574684 0.029127079441527266 0.18587893031560104    F   F   F
0.10148359930384782 0.8593846037286872 0.37410089954261677    T   T   T
0.10662694704903493 0.1130088283781421 0.3784441868475534    T   T   T
0.9348591617688217 0.7961180516377424 0.4726572603738162    T   T   T
0.5910817271255756 0.3599857454258343 0.09243854834749378    F   F   F
0.35605424873601976 0.3737679696424488 0.3766822688331042    T   T   T
0.17722154526680065 0.7914096803986804 0.4673260507363065    T   T   T
0.4221578871149527 0.029600539957416412 0.46808914428924153    T   T   T
0.9359734912843267 0.29025774531083653 0.19048387249528279    F   F   F
0.6764120645231617 0.7724591610224337 0.4688439686428049    T   T   T
0.6792229179000423 0.28325971618327556 0.19056111816033502    F   F   F
0.5119753815745011 0.9518692987532296 0.2813488868828857    T   T   T
0.265594540726401 0.7060123787373397 0.2807380457731329    T   T   T
0.6770740275213327 0.5360648120795913 0.4676681789142155    T   T   T
0.5963951592128394 0.6177818297329953 0.3786274051297952    T   T   T
0.8514898428255335 0.12062109250713036 0.09258713769306137    F   F   F
0.43431840637763286 0.024632824238195867 0.18735143735756093    F   F   F
0.19039990724671263 0.029739826116175056 0.1856704012439206    F   F   F
0.8520698928297287 0.37522601481695034 0.0938835889985266    F   F   F
0.3466011729223561 0.11230241013750063 0.3722602000534094    T   T   T
0.10285469338975343 0.368191548199257 0.09352952282632288    F   F   F
0.9251430487147827 0.5352755002717237 0.4693857096718089    T   T   T
0.5111952850613771 0.7041275860324208 0.2821046218983401    T   T   T
0.6772465519678151 0.7763535009781577 0.18806043319205654    F   F   F
0.4299567428800166 0.7772342298876108 0.1894895548453111    F   F   F
0.9390031723577984 0.5362449500775676 0.1896412431817597    F   F   F
0.432636533443069 0.7793860584729358 0.46687651444775313    T   T   T
0.18254830166358363 0.7744937980625523 0.18896228675477045    F   F   F
0.026064646681255903 0.9499674366919147 0.28247275190478865    T   T   T
0.34861548459280267 0.6265837405168656 0.37373671295050936    T   T   T
0.6803592905154929 0.028439716748806465 0.18892143870942074    F   F   F
0.3420492796970936 0.8760228291847514 0.09189087822908082    F   F   F
0.18147681545501956 0.037699401274045884 0.47424619532179885    T   T   T
0.022886051351980907 0.6921934381124094 0.28264853585258687    T   T   T
0.1051513392244054 0.11003574855100091 0.09072499913194443    F   F   F
0.27353371388643044 0.9522146519887993 0.2844432083960465    T   T   T
0.2724896518310378 0.19579431994120874 0.2807295501620955    T   T   T
0.4346734463695617 0.28991677002020905 0.1862323251205746    F   F   F
0.5046917479066722 0.19030807216347098 0.2802901788600173    T   T   T
0.016232258120363486 0.4588616532391653 0.28043389515623374    T   T   T
0.1782645294767893 0.2811635669363131 0.4698222648829961    T   T   T
0.8429355590019287 0.8585673311986235 0.3807539604624011    T   T   T
0.10183862531079993 0.3788398962491884 0.3774129889514043    T   T   T
0.7626022211846246 0.9550279813949245 0.2811924063153503    T   T   T
0.4316800009053275 0.2828523210181591 0.47050351814585784    T   T   T
0.18150475793549276 0.5335523412155333 0.4680205456281927    T   T   T
0.6810620424806982 0.2881583231708874 0.46936899069793125    T   T   T
0.184425940572554 0.5414365195352652 0.18855383526305297    F   F   F
0.5179631691331613 0.43995479779904545 0.2797525448668432    T   T   T
0.10579428222798307 0.6269054943885419 0.37096022387998184    T   T   T
0.8468359221218432 0.6177018377217135 0.3777478249390615    T   T   T
0.7702109430685684 0.6910179867986515 0.2830435892063699    T   T   T
0.6824343226913476 0.5302399267758658 0.18792743411577234    F   F   F
0.7710606109454804 0.4468783982224016 0.2802824719480834    T   T   T
0.6021559042362518 0.37490512770906 0.37639846980860786    T   T   T
0.43552003719102683 0.5358590834663823 0.4695086861111573    T   T   T
0.7681898896835475 0.20644987780574325 0.28053109928842157    T   T   T
0.8593944716946065 0.6193178635479578 0.0894535518284863    F   F   F
0.10172581166569458 0.6194849280809377 0.09757686236253595    F   F   F
0.4341347149420769 0.5358931968872489 0.18726336923041167    F   F   F
0.8467822675249098 0.37606474753863117 0.37320234731274815    T   T   T
0.5883127700518128 0.11514941698298942 0.37216143598858653    T   T   T
0.595957268704098 0.11332924929470901 0.0943273203436095    F   F   F
0.09539233797079431 0.8570699377848129 0.09144585665275141    F   F   F
0.3426885222532843 0.11409183919119804 0.09177447892082106    F   F   F
0.8496325519707512 0.1199140386249368 0.37637361462902325    T   T   T
0.8582965770205033 0.8718797934663863 0.09136503263406735    F   F   F
0.3433567970796551 0.3587354516028305 0.09074482419622266    F   F   F
