Pt   Pd   Ni   Co   Fe                  
   1.00000000000000     
     8.9564487019592498   -5.1570620181841038   -0.0271120673332781
     0.0040054640884313   10.3273037819205662    0.0160501656895423
    -0.0007114039856745    0.0043944844826606   22.9221716207438106
   Pt   Pd   Ni   Co   Fe
    14    14    18    17    17
Selective dynamics
Direct
  0.4297813061806949  0.0292028551811307  0.4674675255455156   T   T   T
  0.0123417779195028  0.7017169922008579  0.2795779052670833   T   T   T
  0.7588075223269599  0.4458332369829499  0.2812374261121679   T   T   T
  0.1045752333787748  0.1194184263758273  0.3759940262865133   T   T   T
  0.6744736996091705  0.5289564105502375  0.4695389607084761   T   T   T
  0.5994503153014321  0.1125868336268852  0.0951261116985052   F   F   F
  0.3430779905696527  0.6047422307942674  0.3754538618117411   T   T   T
  0.6946190940828846  0.2852686314393027  0.4676620426077927   T   T   T
  0.5233423005584957  0.9597208906035167  0.2851504864301276   T   T   T
  0.3453250876325598  0.1179397915814562  0.0975586741949641   F   F   F
  0.8493007014199773  0.1235678365705733  0.3708782482776224   T   T   T
  0.2656469582996927  0.9540271010749598  0.2817797020993600   T   T   T
  0.2690598974895924  0.2112240872893235  0.2777710141468982   T   T   T
  0.4330852020289413  0.5402342936223050  0.1855188282738993   F   F   F
  0.8564580148638470  0.1147658007007237  0.0976429219094328   F   F   F
  0.6948416969178789  0.7924700212749958  0.4782685536219602   T   T   T
  0.6027153647278141  0.6189377897291806  0.0930934382973234   F   F   F
  0.8537364729809127  0.6174959719202562  0.0936522572498717   F   F   F
  0.9434660616369683  0.2912806827476828  0.1885613629878833   F   F   F
  0.8522436883457436  0.6203354640630319  0.3767471146928753   T   T   T
  0.6006740714377050  0.8625922474293040  0.3796067600867353   T   T   T
  0.6802723338350987  0.0213362630177443  0.1916244630740920   F   F   F
  0.2643750003289527  0.6953048362910647  0.2787217314681014   T   T   T
  0.1774364341957192  0.0356823632302516  0.4752211606282702   T   T   T
  0.5279112050065030  0.7023762314796825  0.2799280540186850   T   T   T
  0.4181916590780452  0.7685744421616588  0.4767616983948976   T   T   T
  0.6800391117107196  0.2844676082507931  0.1871249224578264   F   F   F
  0.1064601282202062  0.6202532889316927  0.0946362473336890   F   F   F
  0.6870595341595163  0.5364616845102432  0.1860340161837541   F   F   F
  0.1023765864769676  0.8692168656599748  0.3767062362289948   T   T   T
  0.3492392557319377  0.6199243734811830  0.0934285559187202   F   F   F
  0.1772348043165124  0.0242379170806615  0.1884456769240259   F   F   F
  0.1102029809671734  0.3708411304692234  0.0972445018920070   F   F   F
  0.0100803390684713  0.9489175082695904  0.2804225331460329   T   T   T
  0.5914477060911308  0.3629500062617860  0.3730735864000601   T   T   T
  0.5942866316446285  0.8600869348235634  0.0965037083409541   F   F   F
  0.8561824343546598  0.3718876517794609  0.3736627643507225   T   T   T
  0.1027749851326121  0.1166135700546249  0.0985700387333281   F   F   F
  0.5989920460240512  0.3657174091105304  0.0945140882602900   F   F   F
  0.0182711668536222  0.2022264020781378  0.2791390235147703   T   T   T
  0.4230887476198859  0.0262237857318723  0.1899235621953252   F   F   F
  0.3549058258527570  0.1205570201504458  0.3750291075564571   T   T   T
  0.1008038072237900  0.6171621316508521  0.3750255948936720   T   T   T
  0.6000918430960788  0.6096013482119849  0.3722646901609862   T   T   T
  0.5993333879379168  0.1245947193801671  0.3743103111948164   T   T   T
  0.5157204643020775  0.2044419378801542  0.2827673146428115   T   T   T
  0.9461409851533001  0.2881145191121885  0.4626069425106134   T   T   T
  0.1841222905373883  0.7873012729453990  0.1861345975499233   F   F   F
  0.4229658214819594  0.7822397810583652  0.1831380921317631   F   F   F
  0.3573070623457123  0.3653108319840865  0.3743863923126053   T   T   T
  0.4290623384433800  0.2868421943525448  0.1847291856089583   F   F   F
  0.3393906308363410  0.8654611038217069  0.3770344655729201   T   T   T
  0.1849098585520395  0.5405129659411116  0.1863009020113964   F   F   F
  0.9434841477441864  0.0297161210937205  0.1921299012765729   F   F   F
  0.3426046794588515  0.3626376782549698  0.0958286048964894   F   F   F
  0.1853648195750779  0.2806070146397417  0.1835735681258441   F   F   F
  0.9296171712505003  0.0456060289575303  0.4654182183760747   T   T   T
  0.1017496634714945  0.8679590597872036  0.0992536440446656   F   F   F
  0.7712045277826268  0.2069394857084776  0.2812892365253131   T   T   T
  0.1677988943457673  0.5284161953331442  0.4633162123170642   T   T   T
  0.1754704275476359  0.7764712538830664  0.4627111252637947   T   T   T
  0.9366757683658520  0.7919420780349995  0.1851368687233190   F   F   F
  0.2563690725692351  0.4463036306335511  0.2791232239162824   T   T   T
  0.9407074018982333  0.7836922824678465  0.4690351157878344   T   T   T
  0.3503115372296577  0.8653458282907636  0.0989682496669957   F   F   F
  0.1869183400565387  0.2919645677790217  0.4657828736674169   T   T   T
  0.8526958627232510  0.8684434204108881  0.3770882115572461   T   T   T
  0.6948602024961801  0.7859938235896422  0.1848272510341999   F   F   F
  0.7830329875231919  0.9549043412483196  0.2799492756809846   T   T   T
  0.0971914480319402  0.3692707556136532  0.3735113657231983   T   T   T
  0.7728934166764545  0.7095453813351377  0.2794335485601534   T   T   T
  0.8480251143589541  0.3623752937341251  0.0912074430524612   F   F   F
  0.6924966437056429  0.0414631510771691  0.4691999166118643   T   T   T
  0.4251982884127890  0.5227125224523981  0.4654753704718004   T   T   T
  0.9394842342569802  0.5444599975312272  0.1880893730864059   F   F   F
  0.0164116805721708  0.4430317297656711  0.2827506980897291   T   T   T
  0.8556256001061087  0.8697595186514420  0.0950115861135643   F   F   F
  0.9433401594777794  0.5298938336682081  0.4664269615845056   T   T   T
  0.5155951133617103  0.4500348080498557  0.2799140624434629   T   T   T
  0.4313426282359168  0.2818034876905368  0.4627643796194362   T   T   T
 
  0.00000000E+00  0.00000000E+00  0.00000000E+00
  0.00000000E+00  0.00000000E+00  0.00000000E+00
  0.00000000E+00  0.00000000E+00  0.00000000E+00
  0.00000000E+00  0.00000000E+00  0.00000000E+00
  0.00000000E+00  0.00000000E+00  0.00000000E+00
  0.00000000E+00  0.00000000E+00  0.00000000E+00
  0.00000000E+00  0.00000000E+00  0.00000000E+00
  0.00000000E+00  0.00000000E+00  0.00000000E+00
  0.00000000E+00  0.00000000E+00  0.00000000E+00
  0.00000000E+00  0.00000000E+00  0.00000000E+00
  0.00000000E+00  0.00000000E+00  0.00000000E+00
  0.00000000E+00  0.00000000E+00  0.00000000E+00
  0.00000000E+00  0.00000000E+00  0.00000000E+00
  0.00000000E+00  0.00000000E+00  0.00000000E+00
  0.00000000E+00  0.00000000E+00  0.00000000E+00
  0.00000000E+00  0.00000000E+00  0.00000000E+00
  0.00000000E+00  0.00000000E+00  0.00000000E+00
  0.00000000E+00  0.00000000E+00  0.00000000E+00
  0.00000000E+00  0.00000000E+00  0.00000000E+00
  0.00000000E+00  0.00000000E+00  0.00000000E+00
  0.00000000E+00  0.00000000E+00  0.00000000E+00
  0.00000000E+00  0.00000000E+00  0.00000000E+00
  0.00000000E+00  0.00000000E+00  0.00000000E+00
  0.00000000E+00  0.00000000E+00  0.00000000E+00
  0.00000000E+00  0.00000000E+00  0.00000000E+00
  0.00000000E+00  0.00000000E+00  0.00000000E+00
  0.00000000E+00  0.00000000E+00  0.00000000E+00
  0.00000000E+00  0.00000000E+00  0.00000000E+00
  0.00000000E+00  0.00000000E+00  0.00000000E+00
  0.00000000E+00  0.00000000E+00  0.00000000E+00
  0.00000000E+00  0.00000000E+00  0.00000000E+00
  0.00000000E+00  0.00000000E+00  0.00000000E+00
  0.00000000E+00  0.00000000E+00  0.00000000E+00
  0.00000000E+00  0.00000000E+00  0.00000000E+00
  0.00000000E+00  0.00000000E+00  0.00000000E+00
  0.00000000E+00  0.00000000E+00  0.00000000E+00
  0.00000000E+00  0.00000000E+00  0.00000000E+00
  0.00000000E+00  0.00000000E+00  0.00000000E+00
  0.00000000E+00  0.00000000E+00  0.00000000E+00
  0.00000000E+00  0.00000000E+00  0.00000000E+00
  0.00000000E+00  0.00000000E+00  0.00000000E+00
  0.00000000E+00  0.00000000E+00  0.00000000E+00
  0.00000000E+00  0.00000000E+00  0.00000000E+00
  0.00000000E+00  0.00000000E+00  0.00000000E+00
  0.00000000E+00  0.00000000E+00  0.00000000E+00
  0.00000000E+00  0.00000000E+00  0.00000000E+00
  0.00000000E+00  0.00000000E+00  0.00000000E+00
  0.00000000E+00  0.00000000E+00  0.00000000E+00
  0.00000000E+00  0.00000000E+00  0.00000000E+00
  0.00000000E+00  0.00000000E+00  0.00000000E+00
  0.00000000E+00  0.00000000E+00  0.00000000E+00
  0.00000000E+00  0.00000000E+00  0.00000000E+00
  0.00000000E+00  0.00000000E+00  0.00000000E+00
  0.00000000E+00  0.00000000E+00  0.00000000E+00
  0.00000000E+00  0.00000000E+00  0.00000000E+00
  0.00000000E+00  0.00000000E+00  0.00000000E+00
  0.00000000E+00  0.00000000E+00  0.00000000E+00
  0.00000000E+00  0.00000000E+00  0.00000000E+00
  0.00000000E+00  0.00000000E+00  0.00000000E+00
  0.00000000E+00  0.00000000E+00  0.00000000E+00
  0.00000000E+00  0.00000000E+00  0.00000000E+00
  0.00000000E+00  0.00000000E+00  0.00000000E+00
  0.00000000E+00  0.00000000E+00  0.00000000E+00
  0.00000000E+00  0.00000000E+00  0.00000000E+00
  0.00000000E+00  0.00000000E+00  0.00000000E+00
  0.00000000E+00  0.00000000E+00  0.00000000E+00
  0.00000000E+00  0.00000000E+00  0.00000000E+00
  0.00000000E+00  0.00000000E+00  0.00000000E+00
  0.00000000E+00  0.00000000E+00  0.00000000E+00
  0.00000000E+00  0.00000000E+00  0.00000000E+00
  0.00000000E+00  0.00000000E+00  0.00000000E+00
  0.00000000E+00  0.00000000E+00  0.00000000E+00
  0.00000000E+00  0.00000000E+00  0.00000000E+00
  0.00000000E+00  0.00000000E+00  0.00000000E+00
  0.00000000E+00  0.00000000E+00  0.00000000E+00
  0.00000000E+00  0.00000000E+00  0.00000000E+00
  0.00000000E+00  0.00000000E+00  0.00000000E+00
  0.00000000E+00  0.00000000E+00  0.00000000E+00
  0.00000000E+00  0.00000000E+00  0.00000000E+00
  0.00000000E+00  0.00000000E+00  0.00000000E+00
