Pt Pd Ni Co Fe 
 1.0000000000000000
     8.9845959999999998   -5.1242000000000001    0.0030630000000000
     0.0408230000000000   10.3251139999999992    0.0249720000000000
     0.0492080000000000    0.0155290000000000   22.9187680000000000
 Pt  Pd  Ni  Co  Fe 
  18  15  16  18  13
Selective dynamics
Cartesian
  5.4273508518571196 -1.9012732539874400  2.1782117767005200   F   F   F
  3.8833250166461801  3.4027581934278195  4.2762556817516000   F   F   F
  1.7295834410890099  7.0379166672296600 10.8417697892977500   T   T   T
  1.6960405006229200  2.0242579865298298 10.8321026789909798   T   T   T
  8.3815396422182591 -4.3957545920494399 10.8397215319900901   T   T   T
  1.7803831109284698  7.1856695356520497  4.2553052928978703   F   F   F
  1.7074666222915400 -0.6123231099219101 10.8491821617516297   T   T   T
  7.7249509822790001  4.6613179402679101  8.5368659051511209   T   T   T
  3.1703771400451699  4.6161489446351203  8.6799684116922400   T   T   T
  8.4384041033020907  0.7852181131407000  4.2893374399929396   F   F   F
  3.9541398234121297  3.2940133345596903 10.8845051054282500   T   T   T
  5.4185320247728503  3.1984103461379298  8.4854016618384698   T   T   T
  6.2341156218776499  4.6111472238693487  4.1963999681219901   F   F   F
  5.4412936190730097  6.0133161152645300  8.5386435965861605   T   T   T
  6.1612317424394796  4.6085136170810701 10.8889335009924100   T   T   T
  2.4818223747958297  5.8967031316923606  6.4725981629301694   T   T   T
  2.6056851424322796  8.5448805416874993  6.4529704113675894   T   T   T
  2.4653256737569200  3.2257209583735293  6.4725046740785599   T   T   T
  8.3954226076896195 -1.8800229100641808  4.1710921573020094   F   F   F
  3.9114905133375397  0.6668697328076396  4.1844074991859905   F   F   F
  0.1884298210809900  9.7001123081123488  6.3282398885425692   T   T   T
  3.1216574854411396  1.9732329227822096  2.0391417613792999   F   F   F
  1.0193778345867102  8.4105069623240496  8.5938430181876999   T   T   T
  8.4219255222448712  3.2306303483986896 10.9773882668067699   T   T   T
  1.6262313930414400  1.9736234781702400  4.2031156268142604   F   F   F
  4.0176089053883901  0.6741722995952898 10.7829714093413411   T   T   T
  7.6855190093784902  2.0609142460666692  2.0855956923989498   F   F   F
  0.0742075393961700  1.9761182573104499  6.4256068161799496   T   T   T
  4.0159309364273001 -1.9370668209503903 10.8268731657065214   T   T   T
  8.3592223493257904 -1.7339600296172502 10.9175955493900698   T   T   T
  7.7026836948996200  1.8777693187393001  8.5690520045427103   T   T   T
  6.1840903484423491 -0.5711552187237201  4.2824337628973694   F   F   F
  0.8389418092381099  3.2878145269956502  8.6199458397140702   T   T   T
  1.6774045465190399  4.6150921202955395  4.2914656412229499   F   F   F
  0.9815582176356199  8.4398748866213893  2.0907225257970299   F   F   F
  0.8477259483008200  0.6156873389450298  2.1413676794926699   F   F   F
  0.9366252198471899  5.8410479938814301  2.1446898465629500   F   F   F
  5.4229691406478899  3.3389451642838002  2.1154470532458602   F   F   F
  6.1807363698745608 -3.1323557969717699 10.7200989631488106   T   T   T
  3.9886492620382303  5.9279847481491394  4.2204754436328296   F   F   F
  5.4185217053391099  5.8235996678036495  2.1424319921864101   F   F   F
  8.4896504207250505  3.3908473590656696  4.1867069269919899   F   F   F
  7.6005897128547497 -3.0696187603432201  8.5639518895509497   T   T   T
  3.0813433530413299 -0.6890689979561900  2.1263499722763699   F   F   F
  7.7104444732703801  4.6370266712976891  2.1044915900401300   F   F   F
  6.1774784860815499  2.0278107190102994  4.2589096077521402   F   F   F
  3.2174548653493504  1.8936708660595696  8.5526068150007806   T   T   T
  6.9086722332829593  3.2526150805213887  6.3488251886537403   T   T   T
  0.1485836460591300  7.1131808680325497  6.4363092574860508   T   T   T
  3.1225835606673198  4.6022222960767900  2.1530378991604602   F   F   F
  1.6645307620340200  4.5886518862064696 10.7686880987417197   T   T   T
  4.7650617561405202  1.8412298453426390  6.4237606003157595   T   T   T
  6.1555115362157098 -3.1590342183761502  4.2829778772476503   F   F   F
  3.2229461698985205 -0.5598596775656003  8.5688559177131705   T   T   T
  0.0177438444601200  4.6225237498241301  6.4980022060748501   T   T   T
  6.8548697429178906  5.9311732932848793  6.3870899660087606   T   T   T
  5.3962510107878403 -1.7695275457128599  8.5578578987093703   T   T   T
  3.9435124944406494  5.8531100884151099 10.7544812963608205   T   T   T
  5.4808994195304503  0.7377685083072996  2.1229797396202001   F   F   F
  5.3689648149961497  0.6295117492879699  8.5335316574660798   T   T   T
  0.9198534161225900  3.3896038395039798  2.0806964656105800   F   F   F
  6.2575750666763001  1.8597884152048996 10.7269406285338498   T   T   T
  4.7960836527350805  7.2460564628971085  6.4118803950149301   T   T   T
  3.2758912500690798  7.2490047968766191  8.6485011969944097   T   T   T
  4.7422892234444198 -0.5408730514317499  6.5286764385416092   T   T   T
  7.7179484923051502 -0.5425344717376706  2.0606345765046199   F   F   F
  1.0207341362554301  0.6937006269363899  8.6344159901523998   T   T   T
  4.7951584763740902  4.5919838510441098  6.3969552331930002   T   T   T
  8.3751933050240286 -4.4561778505116605  4.1938313546536099   F   F   F
  3.1724986529358201  7.0842199060611586  2.1532353354835401   F   F   F
  8.4713479405865009  0.7336764551358900 10.8002262406452800   T   T   T
  0.9442670632926500  5.8530961670899995  8.6051841376281608   T   T   T
  2.4909121451990601  0.7009615464677997  6.5584363020601097   T   T   T
  6.1821444122241598 -0.5447984275089199 10.6305872148384797   T   T   T
  6.9368616653546304  0.7729759166772296  6.3904040350956492   T   T   T
  6.8097099448777492 -1.8771996053746303  6.4873932964443402   T   T   T
  1.6454964360616402 -0.6225326592805102  4.1446027933259497   F   F   F
  7.6089617010057999 -0.6318793470071002  8.5894652931210000   T   T   T
  3.9374316907507101 -1.8991419283436100  4.2686996531506702   F   F   F
  7.6248798194064591 -3.2469027659977794  2.1084940468022699   F   F   F
