Pt Pd Ni Co Fe 
 1.0000000000000000
     8.9787920000000003   -5.1385339999999999   -0.0093560000000000
     0.0222510000000000   10.3219250000000002   -0.0044850000000000
     0.0100720000000000   -0.0211110000000000   22.9158259999999991
 Pt  Pd  Ni  Co  Fe 
  16  13  19  18  14
Selective dynamics
Cartesian
  3.1354865693283402 -0.7026335079530102  8.5860125307311588   T   T   T
  3.0844219145914500  4.5741742914366998  8.6906374506025497   T   T   T
  5.3372877350185002  5.9434813926948307  2.1791862312513199   F   F   F
  0.8370871290999000  0.7068826306924200  8.6594959725859795   T   T   T
  1.7219911981660601  7.0751749090594505  4.2289121402941996   F   F   F
  1.7244096329574901 -0.5143786820993000  4.3782869323255502   F   F   F
  5.4580832343021397  0.5782001106771403  8.5159145079752587   T   T   T
  2.4303123907704904  5.8886886230577895  6.4330038168920103   T   T   T
  8.3989128789164997 -1.8868019131382399  4.3369656515561399   F   F   F
  0.9688650814886399  8.4337636250947909  2.0894744533008600   F   F   F
  1.7708002049442502  7.0830296199239102 10.7592906342376899   T   T   T
  8.3761072223196997 -1.8787049196985199 10.7018949244422199   T   T   T
  7.6758138994918506  4.6200519618077900  2.1505394637656101   F   F   F
  0.2145760772782700  9.6973995652952709  6.5027716682062291   T   T   T
  4.6824300900506604  4.5294494240811396  6.4500302556526599   T   T   T
  3.2453349552010100 -0.5314909634037700  2.1547785200247698   F   F   F
  0.1119865182298300  7.0536184780877500  6.4627766634783494   T   T   T
  6.8243844233570901 -1.7744030577289098  6.4978994149500107   T   T   T
  2.3117686584520198  3.1970573433046501  6.4156622321711998   T   T   T
  8.3843604063642285  3.2815850078319109  4.3302001303389899   F   F   F
  3.1278427843469303  1.9624206376771602  8.5959415130095902   T   T   T
  8.3797271780442308  3.3123325826769507 10.8501039130351504   T   T   T
  7.6227324230839200 -0.5350896981707797  2.2199379603718796   F   F   F
  5.4404242767397104  3.2555047306743399  8.6358340331322108   T   T   T
  5.4344069472100092  5.9299864107158404  8.6105365930245092   T   T   T
  6.1627263706206401  4.5891732348985403  4.3116538746887603   F   F   F
  7.7025221580856202  1.9286632697701802  8.6184229800700205   T   T   T
  6.9323401703604599  5.9246129142975805  6.4646012948254201   T   T   T
  3.8560164411592406  3.2159472744661106  4.2542465468787398   F   F   F
  7.6665819368623396  4.5514816383008805  8.5888287438290192   T   T   T
  0.1675431340604700  1.9936192116410403  6.4340057219582096   T   T   T
  6.1654137533889903  1.8993938251665110  4.3126755571227893   F   F   F
  3.1288933299440500  2.0286337881834302  2.1485921076319698   F   F   F
  3.9243478116973400  0.6751883391927802 10.7363074158422194   T   T   T
  6.0547911481827299  1.9418623567406708 10.7622736064859303   T   T   T
  0.9479736934168801  5.7539872856298198  2.2229864793322798   F   F   F
  8.3122707650036887 -4.4242522218762295 10.6878069366229287   T   T   T
  7.6029622334597402  1.9888524210135303  2.1857771310301199   F   F   F
  5.3938803509452597 -1.8589501865470197  2.2148282273850199   F   F   F
  0.8627481133971900  5.7724996475270300  8.6539563117158700   T   T   T
  2.4887167402030999  0.6676491194943601  6.4109702163327400   T   T   T
  4.6094529019444899  7.2234609632318607  6.3934199099435904   T   T   T
  6.1106107242054906 -3.1464908311361901 10.6732392891648900   T   T   T
  8.3892852012574917  0.6175875025211497 10.7070699758772498   T   T   T
  5.3945053536076699  3.2162744965177108  2.1579151108657899   F   F   F
  4.7212199623014097  1.8734536962925801  6.3627664722898700   T   T   T
  0.8968121872041800  0.8176658750786000  2.1937165034335000   F   F   F
  8.4228321235846799 -4.3901963419970098  4.3156967431662601   F   F   F
  3.9211373774678302  3.2430933489965903 10.7567644091733108   T   T   T
  6.8047391493788991  0.7460869759530407  6.3285977039964605   T   T   T
  6.0869603803178212 -0.5954599915259599 10.6496646089534597   T   T   T
  5.4029933087592603 -1.9460174036383504  8.6192388939509996   T   T   T
  6.0914869962826996  4.6038425028380692 10.7026098181664793   T   T   T
  7.6219694381760394 -3.1027197094729795  8.5964495031036794   T   T   T
  1.6134839044131402  1.9979325539546697  4.2514379170770802   F   F   F
  3.1511081170975501  7.1477542797625704  8.5610198466996295   T   T   T
  1.6851930780596303  4.4245655860142099 10.7356548121237907   T   T   T
  2.5148011219845099  8.4315474782508613  6.4242144480494892   T   T   T
  7.7135610907370697 -0.6536849771174591  8.6031903773042107   T   T   T
  6.0658769865626896 -0.6223022271384696  4.2819153613005705   F   F   F
  1.6928035080865902  1.9472901085183099 10.7401386066563891   T   T   T
  0.9595842249556500  3.1978086636830199  2.1523024908612300   F   F   F
  5.4440889910585204  0.7936000579682300  2.2519617642376200   F   F   F
  6.8546674545306603  3.1914449436444299  6.4478730160993196   T   T   T
  1.6791027123013500  4.4816195442286206  4.2373647603219302   F   F   F
  3.9435925616849303  5.9177594686170805  4.2823214530728695   F   F   F
  6.1665792432630511 -3.1429049410442298  4.3616803968373299   F   F   F
  8.3451917617132008  0.6900651120962502  4.3264987074869001   F   F   F
  1.6413497446341201 -0.5071623111530799 10.7767263919154797   T   T   T
  3.1151989007517602  4.4977843761401193  2.1289823831296797   F   F   F
  3.1902740576796602  7.1966311137603798  2.0902851233782198   F   F   F
  4.5864488074341807 -0.5988307502114000  6.3704663981214988   T   T   T
  0.8214443622897299  3.3259971522429597  8.5761704854899889   T   T   T
  3.9812700776444299  0.7245642553148705  4.2940293809026295   F   F   F
  7.6989323742285105 -3.1720574853553498  2.1681879173235497   F   F   F
  0.1146028358525900  4.5471777423481505  6.5221931489129501   T   T   T
  4.0161242677612403 -1.9295502410908800  4.2625220104478796   F   F   F
  4.0285585676861011 -1.8571132502710301 10.7005783426472796   T   T   T
  0.9563439992655600  8.3363716594293500  8.6145548729265009   T   T   T
  4.0136577856073004  5.7693371100737201 10.7493644550395793   T   T   T
