Pt Pd Ni Co Fe 
 1.0000000000000000
     8.9564489999999992   -5.1570619999999998   -0.0271120000000000
     0.0040050000000000   10.3273039999999998    0.0160500000000000
    -0.0007110000000000    0.0043940000000000   22.9221719999999998
 Pt  Pd  Ni  Co  Fe 
  14  14  18  17  17
Selective dynamics
Cartesian
  3.8490989722086599 -1.9127679968949602 10.7041876021014399   T   T   T
  0.1131501197901600  7.1844258183811398  6.4194608877706596   T   T   T
  6.7978064560099485  0.6922737333461405  6.4331555773177200   T   T   T
  0.9368336532150899  0.6956216028062800  8.6176812487988990   T   T   T
  6.0426739241127887  1.9864541147394810 10.7530562212472205   T   T   T
  5.3693294947036199 -1.9282660622261796  2.1660517766565799   F   F   F
  3.0749155653941997  4.4777321298433801  8.6066225393105391   T   T   T
  6.2221304471641190 -0.6340829428362997 10.7055757674943006   T   T   T
  4.6909295596587608  7.2136736491110209  6.5374832415111799   T   T   T
  3.0932895416499897 -0.5624341614634399  2.2287870936206602   F   F   F
  7.6069495999777494 -3.1021440792095398  8.4802920608125998   T   T   T
  2.3828739824138396  8.4838081831086800  6.4671126640838805   T   T   T
  2.4104697295874398  0.7950373293574999  6.3632102624694200   T   T   T
  3.8809372408981195  3.3465316861107799  4.2494234849108601   F   F   F
  7.6712127001193702 -3.2311567095729394  2.2168095083451198   F   F   F
  6.2261480426143496  4.6028385923493804 10.9568345609411999   T   T   T
  5.4006020397697503  3.2841272871212004  2.1274969764408600   F   F   F
  7.6488536375980187  1.9747082015441806  2.1334775190525801   F   F   F
  8.4511381616173793 -1.8565402960131596  4.3013317295692000   F   F   F
  7.6352937213788996  2.0129747557623996  8.6227124091326406   T   T   T
  5.3830914551323188  5.8122069651150996  8.6989705753093798   T   T   T
  6.0927736364864096 -3.2870185415741799  4.3743477350891595   F   F   F
  2.3704477291091703  5.8184508923829803  6.3928993428795602   T   T   T
  1.5890053616441100 -0.5444599696341800 10.8888632129473599   T   T   T
  4.7308238168508900  4.5324120129706005  6.4135193194905797   T   T   T
  3.7482514380788401  5.7827564609166391 10.9294112978884801   T   T   T
  6.0917418536803192 -0.5683981391728999  4.2754380865164201   F   F   F
  0.9559215529310700  5.8569386235745995  2.1763371181949402   F   F   F
  6.1556298992491492  1.9978116932937409  4.2542864562780798   F   F   F
  0.9201440825566201  8.4503596836584602  8.6461005234087001   T   T   T
  3.1303599903834294  4.6015094344370002  2.1420667333536998   F   F   F
  1.5873575352163196 -0.6628704536719999  4.3151681183353601   F   F   F
  0.9884434479041699  3.2618927771017603  2.2320193319967401   F   F   F
  0.0938850853213800  9.7490068349287800  6.4428502931925804   T   T   T
  5.2984596102493491  0.6998018651994800  8.5414470159844598   T   T   T
  5.3260739269937103  5.8180302331574003  2.2097667353720603   F   F   F
  7.6695780048069597 -0.5731471852576200  8.5479180334550602   T   T   T
  0.9208959104599199  0.6747199091916599  2.2585246231964997   F   F   F
  5.3662392459395090  0.6882510267170003  2.1560981193743798   F   F   F
  0.1642562511641100  1.9954544899769400  6.4012229941104000   T   T   T
  3.7893428024765399 -1.9102393397676998  4.3424106188118197   F   F   F
  3.1789121513655600 -0.5835944966880399  8.5887944977349591   T   T   T
  0.9050492744068498  5.8554172982337596  8.6035735376712612   T   T   T
  5.3768687334883198  3.2024633667341802  8.5266296654081000   T   T   T
  5.3681318087553000 -1.8024271811631594  8.5657559255796389   T   T   T
  4.6196417406588299 -0.5470258425986205  6.4709399958227998   T   T   T
  8.4748885088627688 -1.9018288164229398 10.5829283105988008   T   T   T
  1.6521027000339596  7.1819873651965001  4.2742535782082198   F   F   F
  3.7912744547100896  5.8979717600997406  4.1990102978886403   F   F   F
  3.2013993413807995  1.9316663882422598  8.5779251558498597   T   T   T
  3.8438924265475194  0.7504171069715401  4.2273653455880993   F   F   F
  3.0429329688701996  7.1892780482065195  8.6471380631632808   T   T   T
  1.6581680251920901  4.6292687508561601  4.2740832305989800   F   F   F
  8.4502500804850484 -4.5578746338462199  4.3789318155940000   F   F   F
  3.0699055733551197  1.9786570578329603  2.1931312883990399   F   F   F
  1.6612038669909601  1.9427826497087797  4.2073830777046997   F   F   F
  8.3259205124250588 -4.3210609982527401 10.6439246868423005   T   T   T
  0.9147212472546000  8.4393838875694787  2.2862811138371599   F   F   F
  6.9078828375217789 -1.8387865681353397  6.4301728226264201   T   T   T
  1.5046690895972998  4.5938012680903606 10.6241455725124396   T   T   T
  1.5743727370458898  7.1159759120385591 10.6140491174387002   T   T   T
  8.3923288592565601  3.3489450821713596  4.2310546945894005   F   F   F
  2.2977454900611596  3.2882285418698602  6.3983229530695001   T   T   T
  8.4282030556336789  3.2442029726716002 10.7383774967458407   T   T   T
  3.1409427857448593  7.1305459869373404  2.2729584031380199   F   F   F
  1.6749627258569397  2.0533040532329796 10.6763733621080608   T   T   T
  7.6403369887809296  4.5729307135710995  8.6345010355267995   T   T   T
  6.2264964365041493  4.5345721194653787  4.2304181658555997   F   F   F
  7.0168203881961295  5.8246678297602994  6.4111421716682804   T   T   T
  0.8717036279707799  3.3139902722709196  8.5649836082012403   T   T   T
  6.9250235506584294  3.3430593857421798  6.3956574126165595   T   T   T
  7.5966801129809998 -0.6305575224173000  2.0734970939818598   F   F   F
  6.2021432976039899 -3.1409838879755996 10.7369717832800600   T   T   T
  3.8100293099267395  3.2074824535978803 10.6665680528111597   T   T   T
  8.4164894230572003  0.7786519783995205  4.2946841770678805   F   F   F
  0.1485636812552700  4.4919297126475604  6.4879258843187406   T   T   T
  7.6667828831315088  4.5701741828733411  2.1686339270022801   F   F   F
  8.4507686279124297  0.6095604579866407 10.6744479601106992   T   T   T
  4.6195046778817801  1.9899202866650600  6.4094824726165003   T   T   T
  3.8640978646241400  0.6878430100236200 10.6003930984633001   T   T   T
