Pt Pd Ni Co Fe 
 1.0000000000000000
     8.9645670000000006   -5.0970750000000002   -0.0554420000000000
     0.0644260000000000   10.3118449999999999    0.0416760000000000
    -0.0230490000000000    0.0365270000000000   22.9434980000000017
 Pt  Pd  Ni  Co  Fe 
  15  16  18  14  17
Selective dynamics
Cartesian
  5.3870828187918800  5.9518448315948005  2.1903580643572802   F   F   F
  8.5405855696262716 -1.8038841123805802 10.7207036340111408   T   T   T
  6.1892852778679810 -3.1254608899398502 10.8103979547278009   T   T   T
  0.0784576787371800  2.0086107385362801  6.5313884586569610   T   T   T
  5.5420523674012596  5.8262816996356408  8.5469938792790412   T   T   T
  2.4922979803448899  3.2904172187560099  6.4304674380063407   T   T   T
  3.1108389734638497  4.5765727658316395  2.2200361440076199   F   F   F
  5.4736043491441704  3.2765891183954396  2.1412797793182201   F   F   F
  8.5027668914364423 -4.4587902342845096 10.7838336068123599   T   T   T
  3.2262219383028499  7.1344806614248499  8.6320002894689001   T   T   T
  1.7240972492627002  2.0090247608398597  4.2132858029558804   F   F   F
  8.3948903863178916  3.2125248473095698  4.2107817997867807   F   F   F
  8.3363933556863898 -4.4341334078142900  4.2143548522103407   F   F   F
  0.8796107541871800  8.3100978487114201  8.5205591889508803   T   T   T
  0.9507334530940000  0.6408235829837999  8.5551786529941616   T   T   T
  8.4233894443437318  3.2190016127831895 10.7452482352903402   T   T   T
  5.3198535968514600  0.7027058501848499  2.1030956998902401   F   F   F
  3.2657267899822404  1.9259537853508497  8.5141024771605611   T   T   T
  1.7174774862192304  6.9937658988326996 10.8742541161145017   T   T   T
  3.9142004313514605 -1.8252833863399200 10.8308984848880812   T   T   T
  8.4049067444106988 -1.7706763441735101  4.3305708301336807   F   F   F
  6.1156814504223505  4.5147800588526605 10.8368372477972201   T   T   T
  6.1027964217414796 -0.5341592115453601  4.3462863305578407   F   F   F
  4.7844630166990898  7.1766397213228190  6.4633505039620207   T   T   T
  2.3768051240284995  5.8852485270076897  6.4515526154899208   T   T   T
  6.1163188344032813  1.8509586114109395 10.6968862989271205   T   T   T
  5.5291115024061295  3.1859036594975501  8.4492823081535793   T   T   T
  7.6388748138537608 -3.0928996619441702  2.0820915662532800   F   F   F
  3.8907452164992300 -1.9529003018489701  4.2754445050562202   F   F   F
  1.7044892512269501 -0.6570281212761000  4.2506117364040605   F   F   F
  7.6604480056419799 -0.4703623935913703  2.1224154197492004   F   F   F
  3.2488848999041298 -0.6254817005642501  8.4680944597706613   T   T   T
  0.9436131066630500  3.2758924776550398  2.1555366363757802   F   F   F
  8.4385952345423600  0.6716698939567193 10.5441898379915617   T   T   T
  4.7622226776200103  4.5208266156035108  6.3728631810383405   T   T   T
  6.1169048187337811  4.5605297816928605  4.3095715048250405   F   F   F
  3.9000825506956098  5.8301186427116996  4.3561074636363006   F   F   F
  8.4479339068853321  0.7504322492784800  4.3213217414425804   F   F   F
  3.9203904653544503  5.7205181934538993 10.6860737997007007   T   T   T
  1.6820086118226902  7.0628998684053306  4.3576128834506207   F   F   F
  0.1838865634199000  9.6600659272997298  6.4616034031435605   T   T   T
  3.1855436695899497  4.5366939969451989  8.5949678992199807   T   T   T
  6.0966042464075896 -3.1676756101544696  4.2979834548116607   F   F   F
  3.1206443418142205  7.2933173037391104  2.1258434527795602   F   F   F
  1.7474349110823302 -0.5828688242083502 10.6382377588632213   T   T   T
  0.1286928341242200  7.0914328384490499  6.4404277085368804   T   T   T
  0.9476342752742800  0.6020212442032500  2.0803049053747200   F   F   F
  2.4380391340776404  8.5054496632419188  6.4846431750016809   T   T   T
  2.4775494205125201  0.6559605208447998  6.3811786376318809   T   T   T
  3.9110449744960003  0.7808161282998097  4.2608044967819607   F   F   F
  4.5996893963068199 -0.4624663426272400  6.4473346927987203   T   T   T
  0.0930080155669300  4.6181351715277401  6.5500621219547410   T   T   T
  1.8472925189855200  1.9327636381321798 10.6557463967214812   T   T   T
  7.7124188685934811  4.5590349068888196  8.4484792037280805   T   T   T
  0.9293591813731500  3.3315320712388403  8.6124965835767817   T   T   T
  6.9682699178578797  5.7980802957467201  6.4180943760246407   T   T   T
  3.8989052129195407  0.5959625136983796 10.5301490413188414   T   T   T
  1.7682265744481800  4.5008350405898803 10.5582669764365207   T   T   T
  6.1962602250229999 -0.6126250695292198 10.5162048083996815   T   T   T
  1.6838353074473402  4.6500639295675796  4.3384246163743603   F   F   F
  4.8031726557653398  1.9605321146787600  6.2542219580284009   T   T   T
  0.8908550269654500  5.7218931452974093  8.5912133630393015   T   T   T
  7.6865308573494397  1.8465654305007801  8.4462026522027198   T   T   T
  6.9844056913700703  3.3675768563223798  6.3977929881546212   T   T   T
  6.1475578831355504  1.9961974845924599  4.2959753701033803   F   F   F
  6.9742824561910108  0.7719592311479198  6.4478944344006210   T   T   T
  5.4506750067549410  0.5500485023601699  8.4848122814268816   T   T   T
  3.7871861059536904  3.2611004488945299 10.6640618762558201   T   T   T
  6.8415481706424810 -1.7478042832140304  6.4822996852292398   T   T   T
  7.7419376633189003  2.0091791796972998  2.0305414884455204   F   F   F
  0.9495897264283101  5.8730926849553207  2.2589322638409404   F   F   F
  3.9220389167086398  3.3200706070967394  4.2947413434796404   F   F   F
  7.7379926114047706 -0.5805612319981297  8.5791020237975406   T   T   T
  5.4467734416188200 -1.8480531251362100  8.6048331175773995   T   T   T
  5.3476260759139098 -1.8655597480013597  2.1358807246250202   F   F   F
  0.9082608755440802  8.3550907069620202  2.1285184107234403   F   F   F
  3.0772893685651601 -0.5668594718032401  2.0913831529290401   F   F   F
  7.6449949415226994 -3.1763599731796903  8.6202741193057211   T   T   T
  7.7483230520549302  4.6192245030598604  2.0849841662146202   F   F   F
  3.0990653512511206  1.9524236310853897  2.0779178670889604   F   F   F
