Pt Pd Ni Co Fe 
 1.0000000000000000
     8.9788379999999997   -5.2082129999999998   -0.0213960000000000
    -0.0412480000000000   10.3512199999999996    0.0130200000000000
     0.0054110000000000    0.0005430000000000   22.9185650000000010
 Pt  Pd  Ni  Co  Fe 
  14  17  16  18  15
Selective dynamics
Cartesian
  7.6985729562068386  4.5489362409358503  8.5751370262018209   T   T   T
  3.8258224064634097  3.3674447452608796 10.8506999938615696   T   T   T
  3.0394401516085199  4.5764553513380690  8.5186828020417007   T   T   T
  3.1555943916762104  7.1769856471950195  8.6338230773378903   T   T   T
  0.0438680557037800  7.1272426768150297  6.4569572219723996   T   T   T
  6.8724746936032011 -1.8892595716845799  6.3750150607700400   T   T   T
  7.6009129494894196  4.6132075798908501  2.1552218073080400   F   F   F
  2.3303225696364294  8.4478000669641400  6.5094306518276301   T   T   T
  3.2118574091799204  7.1291979565156893  2.1541807410250602   F   F   F
  4.6944950973401296  1.9869982605282295  6.3598020076335500   T   T   T
  7.5582525043471298  1.9924428401966296  2.1785904164812702   F   F   F
  0.9157907676676700  5.8182674441230500  2.2292015144041701   F   F   F
  3.8992219582130900  3.3433551464980402  4.2189838639331700   F   F   F
  8.5131704552716290  0.6759504593403806 10.7723311839789506   T   T   T
  6.1323497504454600 -0.6533505521910098 10.7805760664020003   T   T   T
  0.1345144031538600  1.9917386916367901  6.4574366186580798   T   T   T
  7.6180486574782096 -3.1818157039552899  8.6541020278279497   T   T   T
  3.1466441412764499  1.9473228138803205  2.1664615543788899   F   F   F
  7.5874696247864994  1.8813103154178599  8.5911992061140996   T   T   T
  6.1536928600057887  2.0358113643057005 10.8794353132321895   T   T   T
  4.6351251334906891 -0.6499734561033799  6.4275573248234110   T   T   T
  1.6060573262232098  1.9518764454873201  4.2838041007964902   F   F   F
  6.7750149091954990  5.7908762005188610  6.3550996728684197   T   T   T
  5.3667426403251204  3.2990113277508897  8.5415202440174607   T   T   T
  7.5778232812093202 -0.7120675053215602  2.2097767403574804   F   F   F
  2.3519411521342097  0.6673519995439101  6.4541618285006699   T   T   T
  6.1227263189630996 -3.2834702801686695 10.8631926363668008   T   T   T
  3.1814502036198502 -0.6293723882927499  2.1491083189296298   F   F   F
  3.7597198073115998  0.6224208827395599 10.8934520139609603   T   T   T
  1.6285037957867998  7.1735624794022401  4.4164558931425200   F   F   F
  3.0916325196388699  1.9261520019916198  8.6255206005607103   T   T   T
  5.3806779675422405  0.6626019246464702  2.2360097222765400   F   F   F
  1.6083241502460501  4.5507856771777000 10.6719704843898118   T   T   T
  5.4346789406024598 -1.9706230782870600  2.1245341666486999   F   F   F
  3.9112373223580601  5.8733577496507587  4.2389657535399001   F   F   F
  2.3575073452307502  3.3622048970665297  6.3967320237706504   T   T   T
  5.3520832535426388  5.9049538123770802  8.5908847673887596   T   T   T
  0.9311757896065999  0.6255404435720400  8.6784070256094807   T   T   T
  3.9126539160597096  0.6116308844049601  4.2794181412363903   F   F   F
  1.4993776106523398  1.9964179305010397 10.7035594769939006   T   T   T
  8.3397206931362486 -4.5234432934256388  4.2202297694188902   F   F   F
  0.8403565851943899  3.2118160218449998  2.2117388787444701   F   F   F
  7.6425967067185701 -0.6402707915870296  8.5413595705899095   T   T   T
  2.3995478086565099  5.7805667038520596  6.4002470115256296   T   T   T
  1.6535418459916298 -0.6262523938456900  4.2691329113219307   F   F   F
  3.1377047227881198  4.5616972532853000  2.1519826502706798   F   F   F
  6.8592207229133502  3.2703034655148899  6.3141958165009306   T   T   T
  0.9146924398404300  8.4660248823653408  8.6964729613657514   T   T   T
  6.1398893831714600  4.5445905141834801  4.2460712249242203   F   F   F
  8.5122987821020004 -1.9075931192124402 10.6644531559150408   T   T   T
  1.5695747333478898  4.5429017749520391  4.3668567168710100   F   F   F
  3.8375768756481499  5.8740755794282498 10.6976863708204100   T   T   T
  5.3946496856932695  0.5366018445259105  8.5703710800549313   T   T   T
  8.3098294592862096 -1.9267845462439099  4.3023686438286299   F   F   F
  8.2736709251013796  3.2331483962339900  4.3164912169118397   F   F   F
  1.5947927365030099 -0.6609207270795900 10.6574967157759097   T   T   T
  5.3444390464836600  3.3720084525468805  2.1064798581237403   F   F   F
  0.1906033237971600  4.5600497812163301  6.4655071439183800   T   T   T
  4.5671651850311994  7.0821867274002601  6.3700609129545605   T   T   T
  3.8256214451906296 -1.9742687369166900 10.7116619115791298   T   T   T
  6.1336433148082898  4.5755964147680892 10.6769723395217913   T   T   T
  5.3497964444922799  5.8042587160604802  2.1768357338723199   F   F   F
  7.5947373436527492 -3.2104239970961892  2.2386521130934902   F   F   F
  0.0779374551453500  9.7059153729766390  6.3326245787315099   T   T   T
  5.3753430108060298 -1.8351925819500099  8.6162015798020892   T   T   T
  3.1246396049435399 -0.6375527643339901  8.7040263440347214   T   T   T
  4.5478436356359495  4.6177701702088401  6.3637483227269112   T   T   T
  0.8396381036407299  3.2652074745150501  8.6258923018115912   T   T   T
  3.9168476420779297 -1.8956478022700698  4.2550945243283502   F   F   F
  0.8955600578920400  0.6302141179633400  2.1746584184948401   F   F   F
  8.4005540600828894  0.5972304914798602  4.3202537573103301   F   F   F
  0.8359897624315400  5.8161870676269203  8.5407141011284207   T   T   T
  6.1333675015952505  2.0270191112707194  4.2554068076356906   F   F   F
  6.8746229110905386  0.6538655121795104  6.4085972871319203   T   T   T
  6.1766593521010593 -3.2632444910199094  4.1695804740393196   F   F   F
  8.4051751550795082  3.2959494194859396 10.7043016456202302   T   T   T
  8.4608810835845603 -4.5286554063353694 10.7153929683086613   T   T   T
  0.8864008493122700  8.4740832171745311  2.2039772637182500   F   F   F
  1.6845208263527398  7.1851862551450196 10.7444849248434604   T   T   T
  6.0545899712657496 -0.6603838256964599  4.2317364992277104   F   F   F
