Pt Pd Ni Co Fe 
 1.0000000000000000
     8.9737360000000006   -5.1895480000000003    0.0044630000000000
    -0.0247690000000000   10.3424999999999994   -0.0160880000000000
     0.0218050000000000   -0.0357650000000000   22.9062790000000014
 Pt  Pd  Ni  Co  Fe 
  14  18  16  14  18
Selective dynamics
Cartesian
  4.6312306946805499  7.0717409229812187  6.5138657675591505   T   T   T
  3.8434341685613003  3.1618471165721593  4.1720377703352609   F   F   F
  2.3807462467767002  8.4949537945586382  6.4449914142883200   T   T   T
  1.6751688922086201  1.9610500196898100 10.8142291676973112   T   T   T
  6.1388089159632511  2.0271838178156996 10.8058804773538313   T   T   T
  6.8441634593729406  0.6479552809793098  6.5188184772904707   T   T   T
  8.3893042481001014  0.6189827366325290  4.2914068217444701   F   F   F
  7.5941178089244206  2.0238410498887092  2.1339270430715800   F   F   F
  3.8745226357223608  0.5905251295451195 10.8326829850999005   T   T   T
  8.3870450825912695 -1.9021883674087101 10.8079704303241204   T   T   T
  7.6567443433065900 -3.2326999752474506  8.5119512073126096   T   T   T
  1.7553983313554300  4.6783730911081491 10.9034958083928011   T   T   T
  0.0928008084638700  9.8697555983625502  6.4403639630075702   T   T   T
  3.1633280228166907  1.8672994174355395  8.4553479639742797   T   T   T
  3.0879940167717903  7.2065646842525091  2.0383573738187999   F   F   F
  5.3615469800640101 -1.9024254803245497  8.7279044300940107   T   T   T
  5.2911096639882409  0.6145995532517596  2.1562708040735301   F   F   F
  0.1959840999213100  4.4542547328065707  6.4802215203724005   T   T   T
  7.6274873027454309 -0.7448354201928007  2.1230267904965299   F   F   F
  0.1478056031403000  7.1513939897350287  6.4939101802995900   T   T   T
  3.1898258577176701  4.5591421976729389  8.5399952471455798   T   T   T
  6.7876513642029099  3.3115798112792096  6.5209372881948608   T   T   T
  4.6051525926602901 -0.5475561854688002  6.4676495339264903   T   T   T
  6.2336876798260006  4.5046113786599404  4.2346264934421400   F   F   F
  5.4439638787326610  5.8790764767157597  2.0884195399175400   F   F   F
  8.3229835047359906 -4.6587045490391104 10.8750901084030005   T   T   T
  3.8796880743561704  5.8898649734904707  4.2374955943543302   F   F   F
  0.8725341679183901  5.8347356732488400  8.6720407450830308   T   T   T
  6.1213582998723206 -0.6654741735005302 10.9755484063494411   T   T   T
  6.2200378730155998 -3.1225489654787699  4.2300273507578501   F   F   F
  0.8563615713494300  8.5044649754180384  8.6972952134574193   T   T   T
  1.6082730148560105  7.2612302910314996  4.1956368765854002   F   F   F
  6.1247579379391199  1.9315150185415597  4.2653890679709203   F   F   F
  4.5717985001330099  4.5275685410177688  6.4204104621166005   T   T   T
  1.6731293305796602 -0.6765002384188200 10.7844842454880094   T   T   T
  0.8463777091582401  0.6792340854452498  2.1292028348511503   F   F   F
  0.9306298231114501  5.7488227154250291  2.0877640377489102   F   F   F
  8.4015468280473709  3.2784073946180290  4.2870843177435898   F   F   F
  3.0827689248922399 -0.6059266449472802  2.1983222187270202   F   F   F
  7.5486807331762211  1.9533171135044194  8.6794525299516607   T   T   T
  6.9301982363623607 -1.9519735298226804  6.3758044112668504   T   T   T
  0.9154645586822701  3.1904081907657296  8.5531115480353908   T   T   T
  8.4531191738295224 -4.5097434252340207  4.2377395114023502   F   F   F
  0.8776715024073801  8.5643067950056189  2.0710513739012701   F   F   F
  4.5907457363632709  2.0237205370330194  6.3647060409342702   T   T   T
  6.0365902864572298  4.5476987465030492 10.6685845851756920   T   T   T
  5.3765003514552498  3.2284179043972494  8.6094108150510209   T   T   T
  3.0882547780026703  4.5345061658782804  2.1293810800148800   F   F   F
  6.0766268597464803 -0.5923327127837904  4.3040505004969196   F   F   F
  8.4266548290985206  3.1315333819370892 10.7375406390973307   T   T   T
  1.5906127408713102  1.9122433164412398  4.1969607746667004   F   F   F
  8.5164697856478497 -1.9732379051797901  4.2869801096066702   F   F   F
  3.1345248022635901  7.1767637735119392  8.7103833451040220   T   T   T
  7.5388387265971710  4.5122634160921695  8.6668802521047112   T   T   T
  5.3168120926736808  3.2260550955950298  2.0916868788170602   F   F   F
  3.9892477338623706  5.8817477821930098 10.6737630263244796   T   T   T
  3.9215052421491103 -1.7871002893979799  4.2926539765271201   F   F   F
  6.0639776247810007 -3.3540832368774605 10.7383844046746493   T   T   T
  7.5965249413073517 -0.5855685783826609  8.6919720923741011   T   T   T
  3.9517587142741903  3.3539870931414293 10.7209389059218818   T   T   T
  1.6992662794004503  7.1863198561475885 10.7195306128944097   T   T   T
  3.0754867689479299  1.9173441830332891  2.1953668739203005   F   F   F
  3.1136173013314297 -0.6812483752148001  8.6924748591083212   T   T   T
  6.8471140515396609  5.8751541173859696  6.4225806412994801   T   T   T
  2.3485220817502497  0.8169241290123300  6.2829005460629608   T   T   T
  1.5994919073465401 -0.5134685879653502  4.2105758266193805   F   F   F
  2.4142143025916405  5.7853175360416493  6.3883214510518611   T   T   T
  7.7017892410897302  4.5144821194164182  2.1137676487933299   F   F   F
  3.7957942848071204 -2.0373558527174302 10.7998954616129001   T   T   T
  2.4114505488750702  3.2095025439524996  6.4038011687017100   T   T   T
  3.8579979893453600  0.5836011763921797  4.2781421126485597   F   F   F
  8.3913629532733705  0.7309035920713194 10.7951634273862709   T   T   T
  0.9359308477885201  3.2168383822531799  2.1969178725793101   F   F   F
  5.3400357891770209 -1.9041534564875500  2.0917558592520802   F   F   F
  7.7822544619495302 -3.2591774852262301  2.1367210330127300   F   F   F
  1.5930269966858701  4.5044938514067798  4.2208811355935802   F   F   F
  0.8664863414624701  0.7138104116203999  8.6647976875942501   T   T   T
  5.4724739143580896  0.7038021923857901  8.6729197427630709   T   T   T
  5.4215470781648696  5.7585896527599987  8.6501731808227600   T   T   T
  0.1324108192064900  2.0129741467950102  6.3414327492595302   T   T   T
