Pt Pd Ni Co Fe 
 1.0000000000000000
     8.9645670000000006   -5.0970750000000002   -0.0554420000000000
     0.0644260000000000   10.3118449999999999    0.0416760000000000
    -0.0230490000000000    0.0365270000000000   22.9434980000000017
 Pt  Pd  Ni  Co  Fe 
  15  16  18  14  17
Selective dynamics
Cartesian
  5.3870828187918800  5.9518448315948005  2.1903580643572802   F   F   F
  8.4654081312617109 -1.7051798266345597 10.7425649222894606   T   T   T
  6.1081232691134604 -3.0238767388300203 10.7934323762185205   T   T   T
  0.0829053244125900  2.0169228753448798  6.5456160841097804   T   T   T
  5.5047496889838898  5.8883682997005993  8.5798665026443803   T   T   T
  2.4909643062271898  3.3102363226057498  6.4542196146941411   T   T   T
  3.1108389734638497  4.5765727658316395  2.2200361440076199   F   F   F
  5.4736043491441704  3.2765891183954396  2.1412797793182201   F   F   F
  8.4248594732695885 -4.3502282993005990 10.8448321437615398   T   T   T
  3.1937823776576004  7.2111149477258296  8.6425770445435202   T   T   T
  1.7240972492627002  2.0090247608398597  4.2132858029558804   F   F   F
  8.3948903863178916  3.2125248473095698  4.2107817997867807   F   F   F
  8.3363933556863898 -4.4341334078142900  4.2143548522103407   F   F   F
  0.8427382175530700  8.3774353570295705  8.5535758478541002   T   T   T
  0.8932242333136700  0.7004878708303299  8.6266427954102198   T   T   T
  8.3916533692130901  3.3247251673158305 10.8191246685507014   T   T   T
  5.3198535968514600  0.7027058501848499  2.1030956998902401   F   F   F
  3.1916278279827099  2.0068335768245196  8.5992254298298612   T   T   T
  1.6810320872531901  7.0736098140604105 10.9010835318599408   T   T   T
  3.8436830393715407 -1.7254274950432804 10.8186988388783600   T   T   T
  8.4049067444106988 -1.7706763441735101  4.3305708301336807   F   F   F
  6.0576635955176998  4.6150904165289202 10.8968981017885209   T   T   T
  6.1027964217414796 -0.5341592115453601  4.3462863305578407   F   F   F
  4.7638623444599704  7.1840644957032902  6.4668540124490201   T   T   T
  2.3462049996898098  5.9022112642192193  6.4772768582765403   T   T   T
  6.0580107002516099  1.9675272511221595 10.8112563763998200   T   T   T
  5.4755414090572199  3.2571541629715894  8.5155559567974404   T   T   T
  7.6388748138537608 -3.0928996619441702  2.0820915662532800   F   F   F
  3.8907452164992300 -1.9529003018489701  4.2754445050562202   F   F   F
  1.7044892512269501 -0.6570281212761000  4.2506117364040605   F   F   F
  7.6604480056419799 -0.4703623935913703  2.1224154197492004   F   F   F
  3.1862735871612400 -0.5466157022025200  8.5174026162132410   T   T   T
  0.9436131066630500  3.2758924776550398  2.1555366363757802   F   F   F
  8.3942082265057909  0.7657549744434391 10.5995100617941400   T   T   T
  4.7675284179998902  4.5240408098134193  6.3876674107401801   T   T   T
  6.1169048187337811  4.5605297816928605  4.3095715048250405   F   F   F
  3.9000825506956098  5.8301186427116996  4.3561074636363006   F   F   F
  8.4479339068853321  0.7504322492784800  4.3213217414425804   F   F   F
  3.8714401101618208  5.8138239798457505 10.7152460992120009   T   T   T
  1.6820086118226902  7.0628998684053306  4.3576128834506207   F   F   F
  0.1561307843742600  9.6798348696602510  6.4912690033544811   T   T   T
  3.1327561607142704  4.6044435488294395  8.6462400397343000   T   T   T
  6.0966042464075896 -3.1676756101544696  4.2979834548116607   F   F   F
  3.1206443418142205  7.2933173037391104  2.1258434527795602   F   F   F
  1.6760627319455199 -0.4635072522044700 10.7458333836898401   T   T   T
  0.0881309526327400  7.1071973471185004  6.4733786016041206   T   T   T
  0.9476342752742800  0.6020212442032500  2.0803049053747200   F   F   F
  2.4058778225739603  8.5364131217568993  6.5145762347763201   T   T   T
  2.4490137142932102  0.6786387225017397  6.4346549185224209   T   T   T
  3.9110449744960003  0.7808161282998097  4.2608044967819607   F   F   F
  4.5824412880400915 -0.4635356592957105  6.4784162030923396   T   T   T
  0.0529156349636000  4.6368204194948195  6.5799266493437205   T   T   T
  1.7715702131988000  2.0395582898788200 10.7461296970666016   T   T   T
  7.6675543304630311  4.6184724080631003  8.4831612933956606   T   T   T
  0.8553497751781201  3.4020870666694298  8.6336001595373606   T   T   T
  6.9476633488703392  5.7994115542763893  6.4435080364981205   T   T   T
  3.8180777387110405  0.7125075816459601 10.6549841620793604   T   T   T
  1.7100594257618302  4.5726068135060096 10.6079753242340615   T   T   T
  6.1131052704328503 -0.4908122675109005 10.5600260469677814   T   T   T
  1.6838353074473402  4.6500639295675796  4.3384246163743603   F   F   F
  4.7621141990129994  1.9301097575301098  6.3210508478892002   T   T   T
  0.8405725906845400  5.7965400739729303  8.6240388795956004   T   T   T
  7.6347225963085110  1.9392364800339197  8.5207037200773392   T   T   T
  6.9533715459996612  3.3575301840578997  6.4235552465666403   T   T   T
  6.1475578831355504  1.9961974845924599  4.2959753701033803   F   F   F
  6.9183563356419402  0.7803027776049698  6.4904052894258806   T   T   T
  5.3729103697565215  0.6711890354750800  8.6058454136910409   T   T   T
  3.7228312773555299  3.3499432791038095 10.7571322893867798   T   T   T
  6.8496305194304909 -1.7739345241268503  6.4565033195739803   T   T   T
  7.7419376633189003  2.0091791796972998  2.0305414884455204   F   F   F
  0.9495897264283101  5.8730926849553207  2.2589322638409404   F   F   F
  3.9220389167086398  3.3200706070967394  4.2947413434796404   F   F   F
  7.6776842988952705 -0.4660374013757503  8.5973548750476212   T   T   T
  5.4223573270447405 -1.7156573991206601  8.5722911602032017   T   T   T
  5.3476260759139098 -1.8655597480013597  2.1358807246250202   F   F   F
  0.9082608755440802  8.3550907069620202  2.1285184107234403   F   F   F
  3.0772893685651601 -0.5668594718032401  2.0913831529290401   F   F   F
  7.5972013068794402 -3.0803301258071403  8.6267173906671601   T   T   T
  7.7483230520549302  4.6192245030598604  2.0849841662146202   F   F   F
  3.0990653512511206  1.9524236310853897  2.0779178670889604   F   F   F
