Pt Pd Ni Co Fe 
 1.0000000000000000
     8.9845959999999998   -5.1242000000000001    0.0030630000000000
     0.0408230000000000   10.3251139999999992    0.0249720000000000
     0.0492080000000000    0.0155290000000000   22.9187680000000000
 Pt  Pd  Ni  Co  Fe 
  18  15  16  18  13
Selective dynamics
Cartesian
  5.4273508518571196 -1.9012732539874400  2.1782117767005200   F   F   F
  3.8833250166461801  3.4027581934278195  4.2762556817516000   F   F   F
  1.7386939249189099  7.0299113746700694 10.7975269448280500   T   T   T
  1.6977635487100999  2.0183938271896493 10.8255042161522912   T   T   T
  8.3896760420493308 -4.3930948322987300 10.7857357271422405   T   T   T
  1.7803831109284698  7.1856695356520497  4.2553052928978703   F   F   F
  1.7175185047629498 -0.6143005013412001 10.8019604624460808   T   T   T
  7.7152115773026608  4.6413029611237695  8.4894560356279900   T   T   T
  3.1472744066882798  4.6320724164732399  8.6644397786295606   T   T   T
  8.4384041033020907  0.7852181131407000  4.2893374399929396   F   F   F
  3.9660682690102598  3.2989910134482590 10.8549017128177887   T   T   T
  5.4092342015767407  3.2096428797737886  8.4369691925744394   T   T   T
  6.2341156218776499  4.6111472238693487  4.1963999681219901   F   F   F
  5.4360325930140609  6.0138621782846196  8.4865525725851594   T   T   T
  6.1735644452926799  4.6052324656964290 10.8342390308745404   T   T   T
  2.4806586447822099  5.9176761080362690  6.4646589120045492   T   T   T
  2.6110813467753897  8.5669935500119188  6.4315151469220799   T   T   T
  2.4510754431948993  3.2543413812776101  6.4656562287545505   T   T   T
  8.3954226076896195 -1.8800229100641808  4.1710921573020094   F   F   F
  3.9114905133375397  0.6668697328076396  4.1844074991859905   F   F   F
  0.2104697167585300  9.7267464180970986  6.3118494673179804   T   T   T
  3.1216574854411396  1.9732329227822096  2.0391417613792999   F   F   F
  1.0128402969479999  8.4002272568160397  8.5486740023520795   T   T   T
  8.4247876608156993  3.2148047355970197 10.9010228564464011   T   T   T
  1.6262313930414400  1.9736234781702400  4.2031156268142604   F   F   F
  4.0313866592423704  0.6802147154313397 10.7456488000089809   T   T   T
  7.6855190093784902  2.0609142460666692  2.0855956923989498   F   F   F
  0.0828745451800100  1.9954831080603297  6.4143255000031107   T   T   T
  4.0345297320991600 -1.9378515396963700 10.8161658110296397   T   T   T
  8.3536666905525898 -1.7430069626860303 10.9032854193549404   T   T   T
  7.6762821337364402  1.8802182243946084  8.5100124360856597   T   T   T
  6.1840903484423491 -0.5711552187237201  4.2824337628973694   F   F   F
  0.8248648621285199  3.2856686168277296  8.6145851666576405   T   T   T
  1.6774045465190399  4.6150921202955395  4.2914656412229499   F   F   F
  0.9815582176356199  8.4398748866213893  2.0907225257970299   F   F   F
  0.8477259483008200  0.6156873389450298  2.1413676794926699   F   F   F
  0.9366252198471899  5.8410479938814301  2.1446898465629500   F   F   F
  5.4229691406478899  3.3389451642838002  2.1154470532458602   F   F   F
  6.1871376984605400 -3.1324525102432905 10.6495523735106108   T   T   T
  3.9886492620382303  5.9279847481491394  4.2204754436328296   F   F   F
  5.4185217053391099  5.8235996678036495  2.1424319921864101   F   F   F
  8.4896504207250505  3.3908473590656696  4.1867069269919899   F   F   F
  7.6020387362437898 -3.0828964227243403  8.5127569348553003   T   T   T
  3.0813433530413299 -0.6890689979561900  2.1263499722763699   F   F   F
  7.7104444732703801  4.6370266712976891  2.1044915900401300   F   F   F
  6.1774784860815499  2.0278107190102994  4.2589096077521402   F   F   F
  3.1821698369637894  1.9144925843216594  8.5341334359742902   T   T   T
  6.9136194782966900  3.2721249120069791  6.3275959579338004   T   T   T
  0.1466782994139800  7.1312242395245500  6.4121478718823202   T   T   T
  3.1225835606673198  4.6022222960767900  2.1530378991604602   F   F   F
  1.6720975036076697  4.5859695622423295 10.7627880238947196   T   T   T
  4.7423192130618599  1.8884595218896694  6.3801477196232792   T   T   T
  6.1555115362157098 -3.1590342183761502  4.2829778772476503   F   F   F
  3.2178645467720797 -0.5410963446904500  8.5518068270572609   T   T   T
  0.0211598300633900  4.6451343940454999  6.4915186403260696   T   T   T
  6.8739421054522891  5.9472090982238486  6.3628385057836807   T   T   T
  5.3668778961117507 -1.7698452372285303  8.5171579756425508   T   T   T
  3.9616386377774302  5.8602154492576997 10.7226577300769410   T   T   T
  5.4808994195304503  0.7377685083072996  2.1229797396202001   F   F   F
  5.3407560346045297  0.6428881653442495  8.4969318403671394   T   T   T
  0.9198534161225900  3.3896038395039798  2.0806964656105800   F   F   F
  6.2559597618744602  1.8700350064238593 10.6502401088868996   T   T   T
  4.8020480109150601  7.2438525693659788  6.3786136310423300   T   T   T
  3.2807510742154298  7.2557533221767097  8.6370039235858602   T   T   T
  4.7549825127158698 -0.5218716276584806  6.4951583814912697   T   T   T
  7.7179484923051502 -0.5425344717376706  2.0606345765046199   F   F   F
  1.0091013903818999  0.6921444300972899  8.6005166777104805   T   T   T
  4.7894627748046208  4.6261577043249593  6.3619676195855703   T   T   T
  8.3751933050240286 -4.4561778505116605  4.1938313546536099   F   F   F
  3.1724986529358201  7.0842199060611586  2.1532353354835401   F   F   F
  8.4640670655881092  0.7159496587180693 10.7236749669215499   T   T   T
  0.9153144049921000  5.8379592168776391  8.5681397849956600   T   T   T
  2.5006936690737298  0.7329901509050698  6.5489019850129502   T   T   T
  6.1901446141102197 -0.5514886483890002 10.5652840881183590   T   T   T
  6.9126384874648492  0.7866274025171692  6.3616439405376894   T   T   T
  6.8125821273702902 -1.8868409207100303  6.4634497405752898   T   T   T
  1.6454964360616402 -0.6225326592805102  4.1446027933259497   F   F   F
  7.5962545160390498 -0.6472073583282805  8.5500258630645600   T   T   T
  3.9374316907507101 -1.8991419283436100  4.2686996531506702   F   F   F
  7.6248798194064591 -3.2469027659977794  2.1084940468022699   F   F   F
