Pt Pd Ni Co Fe 
 1.0000000000000000
     8.9645670000000006   -5.0970750000000002   -0.0554420000000000
     0.0644260000000000   10.3118449999999999    0.0416760000000000
    -0.0230490000000000    0.0365270000000000   22.9434980000000017
 Pt  Pd  Ni  Co  Fe 
  15  16  18  14  17
Selective dynamics
Cartesian
  5.3870828187918800  5.9518448315948005  2.1903580643572802   F   F   F
  8.5634038901029310 -1.8400289041301809 10.7294987729595004   T   T   T
  6.2175979693122807 -3.1726728806784399 10.8069343108011999   T   T   T
  0.0768483085766000  2.0015936719817300  6.5369264609098403   T   T   T
  5.5644419824218003  5.7830621560225692  8.5405961898413612   T   T   T
  2.4998771149897703  3.2749330348897403  6.4352056040802603   T   T   T
  3.1108389734638497  4.5765727658316395  2.2200361440076199   F   F   F
  5.4736043491441704  3.2765891183954396  2.1412797793182201   F   F   F
  8.5299037686493495 -4.4972776670306409 10.7920004648293801   T   T   T
  3.2434540637004003  7.1033389675875904  8.6388899804429613   T   T   T
  1.7240972492627002  2.0090247608398597  4.2132858029558804   F   F   F
  8.3948903863178916  3.2125248473095698  4.2107817997867807   F   F   F
  8.3363933556863898 -4.4341334078142900  4.2143548522103407   F   F   F
  0.9051399407249701  8.2852799688461403  8.5227285354575013   T   T   T
  0.9632757163648100  0.6175191805469699  8.5518888897046601   T   T   T
  8.4554133145201718  3.1775652510344203 10.7626619725974599   T   T   T
  5.3198535968514600  0.7027058501848499  2.1030956998902401   F   F   F
  3.2820319434933807  1.9003487708525399  8.5203357069976011   T   T   T
  1.7548103689993702  6.9547237215966486 10.8913658765780212   T   T   T
  3.9462855202791505 -1.8708932350109704 10.8389561920552211   T   T   T
  8.4049067444106988 -1.7706763441735101  4.3305708301336807   F   F   F
  6.1405348127084807  4.4681886223537104 10.8359091532285206   T   T   T
  6.1027964217414796 -0.5341592115453601  4.3462863305578407   F   F   F
  4.7915558016644599  7.1505609016342193  6.4624851143177207   T   T   T
  2.3912003218629301  5.8744108768209102  6.4534858038957799   T   T   T
  6.1448249410085802  1.8023133575776396 10.7053470328054008   T   T   T
  5.5563546472221192  3.1353003804141801  8.4581412500604003   T   T   T
  7.6388748138537608 -3.0928996619441702  2.0820915662532800   F   F   F
  3.8907452164992300 -1.9529003018489701  4.2754445050562202   F   F   F
  1.7044892512269501 -0.6570281212761000  4.2506117364040605   F   F   F
  7.6604480056419799 -0.4703623935913703  2.1224154197492004   F   F   F
  3.2543128156072005 -0.6606709125951301  8.4690812011725605   T   T   T
  0.9436131066630500  3.2758924776550398  2.1555366363757802   F   F   F
  8.4807679207712496  0.6332956002360396 10.5555522787372613   T   T   T
  4.7795253299357308  4.4835268250596192  6.3791415906467401   T   T   T
  6.1169048187337811  4.5605297816928605  4.3095715048250405   F   F   F
  3.9000825506956098  5.8301186427116996  4.3561074636363006   F   F   F
  8.4479339068853321  0.7504322492784800  4.3213217414425804   F   F   F
  3.9534666479824701  5.6814993046053992 10.6882293688261409   T   T   T
  1.6820086118226902  7.0628998684053306  4.3576128834506207   F   F   F
  0.2017558341047600  9.6501185246622896  6.4636706107320006   T   T   T
  3.2131935767066304  4.5081366791200006  8.5989180867923007   T   T   T
  6.0966042464075896 -3.1676756101544696  4.2979834548116607   F   F   F
  3.1206443418142205  7.2933173037391104  2.1258434527795602   F   F   F
  1.7792050839764602 -0.6163796856443401 10.6402012133111619   T   T   T
  0.1493463883461100  7.0848355071899896  6.4272310787966207   T   T   T
  0.9476342752742800  0.6020212442032500  2.0803049053747200   F   F   F
  2.4547963777536399  8.4887739327716094  6.4866446590668003   T   T   T
  2.4748945367547597  0.6448770545063001  6.3846690888137605   T   T   T
  3.9110449744960003  0.7808161282998097  4.2608044967819607   F   F   F
  4.5912273897739304 -0.4881831872886302  6.4383799643125013   T   T   T
  0.1165879439704400  4.6081034214083196  6.5498976635074797   T   T   T
  1.8638038155012699  1.8964023311922498 10.6618121197903797   T   T   T
  7.7350637662498301  4.5259981938137290  8.4645177606228206   T   T   T
  0.9452744088676600  3.3129523278836097  8.6134505867778017   T   T   T
  6.9772293471925302  5.7635006345057205  6.4155800193483801   T   T   T
  3.9220944763298005  0.5502909095196100 10.5304939284328807   T   T   T
  1.8013437608720699  4.4638348996242394 10.5671180959997013   T   T   T
  6.2183812261347908 -0.6523181298567506 10.5163571964864211   T   T   T
  1.6838353074473402  4.6500639295675796  4.3384246163743603   F   F   F
  4.8178277403507810  1.9339532015620993  6.2596396914821604   T   T   T
  0.9230806305951601  5.6905683436860697  8.6014710472613611   T   T   T
  7.7213475975812109  1.8158898241967094  8.4573571346775793   T   T   T
  7.0076088984413403  3.3456617038510101  6.4021209976395603   T   T   T
  6.1475578831355504  1.9961974845924599  4.2959753701033803   F   F   F
  7.0054994118735507  0.7530699100093802  6.4446643253367801   T   T   T
  5.4568133691943901  0.5006393750863795  8.4636112881123005   T   T   T
  3.8101007342450903  3.2118338451003106 10.6717579971103014   T   T   T
  6.8312981112458404 -1.7482789950927604  6.4975892138645204   T   T   T
  7.7419376633189003  2.0091791796972998  2.0305414884455204   F   F   F
  0.9495897264283101  5.8730926849553207  2.2589322638409404   F   F   F
  3.9220389167086398  3.3200706070967394  4.2947413434796404   F   F   F
  7.7527816632726809 -0.5956755074851106  8.5826211801721612   T   T   T
  5.4685956663978894 -1.8900098186307099  8.6138321812388607   T   T   T
  5.3476260759139098 -1.8655597480013597  2.1358807246250202   F   F   F
  0.9082608755440802  8.3550907069620202  2.1285184107234403   F   F   F
  3.0772893685651601 -0.5668594718032401  2.0913831529290401   F   F   F
  7.6685983057482714 -3.2045581780092003  8.6308438206308207   T   T   T
  7.7483230520549302  4.6192245030598604  2.0849841662146202   F   F   F
  3.0990653512511206  1.9524236310853897  2.0779178670889604   F   F   F
