Pt Pd Ni Co Fe 
 1.0000000000000000
     8.9564489999999992   -5.1570619999999998   -0.0271120000000000
     0.0040050000000000   10.3273039999999998    0.0160500000000000
    -0.0007110000000000    0.0043940000000000   22.9221719999999998
 Pt  Pd  Ni  Co  Fe 
  14  14  18  17  17
Selective dynamics
Cartesian
  3.8576905963825499 -1.8731826167898402 10.6785834608088592   T   T   T
  0.1053201232772100  7.2168628547468199  6.4106037317230404   T   T   T
  6.8185228097843984  0.6589785810660204  6.4489930676412603   T   T   T
  0.9331147784235599  0.6863220120177400  8.5866371895819800   T   T   T
  6.0442550464938289  1.9825883570371003 10.7782717637938390   T   T   T
  5.3693294947036199 -1.9282660622261796  2.1660517766565799   F   F   F
  3.0651586953043499  4.4873139578635204  8.5460726671973397   T   T   T
  6.1876403899146890 -0.6316351694427798 10.7515164508239600   T   T   T
  4.6845899838426597  7.2358190834535607  6.4750405594306404   T   T   T
  3.0932895416499897 -0.5624341614634399  2.2287870936206602   F   F   F
  7.6427387789534986 -3.1053296251596993  8.5788976047336991   T   T   T
  2.3760501187491898  8.4846477529793987  6.4642854804464607   T   T   T
  2.4227081964270898  0.8039465238401801  6.3571092121288002   T   T   T
  3.8809372408981195  3.3465316861107799  4.2494234849108601   F   F   F
  7.6712127001193702 -3.2311567095729394  2.2168095083451198   F   F   F
  6.1884175201161291  4.6132199057383003 10.8256341285003597   T   T   T
  5.4006020397697503  3.2841272871212004  2.1274969764408600   F   F   F
  7.6488536375980187  1.9747082015441806  2.1334775190525801   F   F   F
  8.4511381616173793 -1.8565402960131596  4.3013317295692000   F   F   F
  7.6327349699719802  1.9881017838623196  8.5989490173902006   T   T   T
  5.3931795502859101  5.8182666590879002  8.5761908223187593   T   T   T
  6.0927736364864096 -3.2870185415741799  4.3743477350891595   F   F   F
  2.3342532083395198  5.7978714764163595  6.3686220220406007   T   T   T
  1.5931857556500300 -0.6108755566198000 10.8116174886924199   T   T   T
  4.7087399644892995  4.4678289149723600  6.3779208028670400   T   T   T
  3.8064213482065199  5.8560045315073195 10.8370159323496811   T   T   T
  6.0917418536803192 -0.5683981391728999  4.2754380865164201   F   F   F
  0.9559215529310700  5.8569386235745995  2.1763371181949402   F   F   F
  6.1556298992491492  1.9978116932937409  4.2542864562780798   F   F   F
  0.8837077562848800  8.4456004463620591  8.6324344606141796   T   T   T
  3.1303599903834294  4.6015094344370002  2.1420667333536998   F   F   F
  1.5873575352163196 -0.6628704536719999  4.3151681183353601   F   F   F
  0.9884434479041699  3.2618927771017603  2.2320193319967401   F   F   F
  0.0563106617429400  9.7750077941254396  6.4302068455822399   T   T   T
  5.3048224220085896  0.6835372627035000  8.5868511214348011   T   T   T
  5.3260739269937103  5.8180302331574003  2.2097667353720603   F   F   F
  7.6760695763589597 -0.6405568891584602  8.5883305746408993   T   T   T
  0.9208959104599199  0.6747199091916599  2.2585246231964997   F   F   F
  5.3662392459395090  0.6882510267170003  2.1560981193743798   F   F   F
  0.1287733898179800  1.9897179459655199  6.4122664513855199   T   T   T
  3.7893428024765399 -1.9102393397676998  4.3424106188118197   F   F   F
  3.1580238073054501 -0.6070214635062599  8.5709084115860392   T   T   T
  0.9018138099329999  5.8509091252843408  8.6318988009395401   T   T   T
  5.3578987392636002  3.2268815026863193  8.5470127558303997   T   T   T
  5.3543916680310897 -1.8495222338466997  8.5555223959296001   T   T   T
  4.6627016452604995 -0.5388780874581796  6.4644410615972596   T   T   T
  8.4219379916543993 -1.8676317022034399 10.6866766410500400   T   T   T
  1.6521027000339596  7.1819873651965001  4.2742535782082198   F   F   F
  3.7912744547100896  5.8979717600997406  4.1990102978886403   F   F   F
  3.1341166115916597  1.9616395893056202  8.5985434256763806   T   T   T
  3.8438924265475194  0.7504171069715401  4.2273653455880993   F   F   F
  3.0566217853679398  7.1934217832092200  8.6140287865839404   T   T   T
  1.6581680251920901  4.6292687508561601  4.2740832305989800   F   F   F
  8.4502500804850484 -4.5578746338462199  4.3789318155940000   F   F   F
  3.0699055733551197  1.9786570578329603  2.1931312883990399   F   F   F
  1.6612038669909601  1.9427826497087797  4.2073830777046997   F   F   F
  8.3544084429915593 -4.4518452615045190 10.6555856196875602   T   T   T
  0.9147212472546000  8.4393838875694787  2.2862811138371599   F   F   F
  6.9219351127685691 -1.8866064376268799  6.4600536785674203   T   T   T
  1.5861902916714299  4.5174968232815598 10.6679631751628587   T   T   T
  1.6094899498015798  7.0988984352173796 10.6572685275784202   T   T   T
  8.3923288592565601  3.3489450821713596  4.2310546945894005   F   F   F
  2.2887337304005198  3.2537462385647204  6.4064034497536007   T   T   T
  8.4140626435829997  3.2769872339584398 10.7538574991894400   T   T   T
  3.1409427857448593  7.1305459869373404  2.2729584031380199   F   F   F
  1.6048531507896000  2.0227052481084997 10.7483671668003797   T   T   T
  7.6338552108764688  4.5415263911823205  8.6023360238713789   T   T   T
  6.2264964365041493  4.5345721194653787  4.2304181658555997   F   F   F
  6.9784557751369789  5.8409901965913607  6.4322183024278408   T   T   T
  0.8765552753688599  3.3026492498630597  8.6360638500305384   T   T   T
  6.9096586111643692  3.3561235983944404  6.3869069950905004   T   T   T
  7.5966801129809998 -0.6305575224173000  2.0734970939818598   F   F   F
  6.1852332581392488 -3.1402481034626399 10.7139025176528193   T   T   T
  3.7983339374254199  3.2450054032930802 10.6832057177605204   T   T   T
  8.4164894230572003  0.7786519783995205  4.2946841770678805   F   F   F
  0.1793349823315500  4.4929775766982996  6.4918253880664398   T   T   T
  7.6667828831315088  4.5701741828733411  2.1686339270022801   F   F   F
  8.4210661712360686  0.6470617059287007 10.7159709157871603   T   T   T
  4.6123896920759995  1.9508261826807198  6.4464201568007597   T   T   T
  3.8211002583392695  0.7601230984720999 10.6639333819219591   T   T   T
