Pt Pd Ni Co Fe 
 1.0000000000000000
     9.0348150000000000   -5.1878500000000001   -0.0082870000000000
    -0.0577960000000000   10.2815770000000004   -0.0342180000000000
    -0.0094090000000000   -0.0583070000000000   22.9315239999999996
 Pt  Pd  Ni  Co  Fe 
  17  17  16  16  14
Selective dynamics
Cartesian
  4.6048554072296399  7.0752129790008702  6.5004709080888006   T   T   T
  2.2714344662882002  8.3803636269361501  6.3826463678777303   T   T   T
  3.8239752783414902  5.8870920654534213  4.1796454859345005   F   F   F
  8.3859637510690703 -1.9815607092418397  4.2504054727682599   F   F   F
  6.1932337867031197  1.9687023112514102 10.7168287701207205   T   T   T
  5.3417601958567298 -1.8742766868847598  2.2315170744380901   F   F   F
  1.5623918032685202  7.1409337840173608 10.8595485398565206   T   T   T
  3.8618333629251995  0.7016383373559003 10.7747740913632803   T   T   T
  0.1568138594526300  4.4960676714899401  6.4570986484913391   T   T   T
  3.8303538491239797  3.2111309604918401  4.1806483240697005   F   F   F
  4.5883030546596597  4.3576704913877808  6.5206863045738990   T   T   T
  5.4047290724323709 -1.9786312052146902  8.7893840010407089   T   T   T
  7.7144308625757603  2.0553405409815801  2.1166878407740000   F   F   F
  6.9455054158837406  5.7153567908666201  6.5406517358998197   T   T   T
  0.9549652661722100  5.8279637339213304  2.0495320194363402   F   F   F
  8.5061127848411608 -4.5936905434795205  4.2084181779746697   F   F   F
  0.8252923184534401  0.7030866904891701  8.6053505388918907   T   T   T
  3.0130707060930204  1.8846078006032601  2.0489648081850600   F   F   F
  6.9222419825213102 -1.9264633168838701  6.5378051368759396   T   T   T
  3.8431025424517093  5.6784086160752807 10.8920673003883106   T   T   T
  7.6700937781329408 -0.6443774681683297  2.1284115150151899   F   F   F
  3.1354863132587196 -0.6407440104413900  8.6350540889102589   T   T   T
  3.8704313055416901  0.5406607942746700  4.2460580712174405   F   F   F
  6.9227751245069999  3.0628702172806004  6.4340250967771100   T   T   T
  0.9200093690176501  5.8321170818613499  8.6435972255656406   T   T   T
  8.4002501328315304  0.6999976181998903  4.3223185989599395   F   F   F
  2.3815327523536101  0.7225450611279799  6.4112461873383104   T   T   T
  8.5174977381638506 -4.5219130456453005 10.9655975096182399   T   T   T
  5.4135491881258497  5.8045102062469507  2.0249934280727899   F   F   F
  6.1836377157977802  4.4653066085956405  4.2197673472265400   F   F   F
  6.2016186858402902 -3.1909546484053801 11.0570900335004296   T   T   T
  2.3517982897967800  5.7705141546374907  6.4273183052637002   T   T   T
  5.3783086565193203  3.2087141688729601  2.0195530144979901   F   F   F
  7.6790564522299087 -0.6305761617889197  8.7189129399245289   T   T   T
  1.6495142719320199 -0.6720939292419901  4.2427020483958602   F   F   F
  0.9206866733889000  8.4574018685521004  2.0792267786469401   F   F   F
  8.4953478535721008  3.1963075534456000  4.2684233849435795   F   F   F
  8.3801358989478878  0.6339518083336709 10.8026727651138295   T   T   T
  5.3847502469268598  0.6350913278920304  2.1369248363284901   F   F   F
  3.0419857766422003  7.1774459294310002  2.0790778569808896   F   F   F
  7.7322861009001196  4.5563589669944609  1.9888086998149499   F   F   F
  6.8605647971824597  0.6184146096661806  6.4645633770324498   T   T   T
  8.4262904221396795  3.1675605190325404 10.6206428626381104   T   T   T
  3.8947391445540398 -1.9288468570065298  4.3320373152628395   F   F   F
  6.1469776693832205  1.8416134760028604  4.2500179884952596   F   F   F
  7.6104898600500404  4.4170892312378198  8.6806410627255488   T   T   T
  6.1211557056396195 -0.7005982898245897  4.4206661391918693   F   F   F
  0.8906570835045601  0.6256791597498300  2.0793729537431100   F   F   F
  0.1793528866636300  1.9226138338522403  6.4118124034206199   T   T   T
  8.4518211999509916 -1.9165333733936303 10.7487574575244196   T   T   T
  0.0688483610953700  7.1293204431628112  6.4620444935790591   T   T   T
  3.1239877744683899  4.5492304115447197  1.9659857730685597   F   F   F
  0.8885769102528900  3.2106242961704199  2.0994919287167799   F   F   F
  1.6466204879320401 -0.6437488961464299 10.6936132101136998   T   T   T
  3.2489272772854303  2.0443852070141904  8.5145215436623509   T   T   T
  1.6028032878885099  7.1660965421379306  4.2033323918114096   F   F   F
  5.3310199843206307  5.6509553434592901  8.7106349007866495   T   T   T
  1.6074005403529301  1.9284635342836900  4.2163495196929004   F   F   F
  6.1507843796967796 -0.5943151038801601 10.7985344583140090   T   T   T
  2.3395193014408306  3.1775704812103900  6.3806208763849996   T   T   T
  0.9686576906858000  3.2218828357989504  8.5609552700313305   T   T   T
  7.6639639015887093  1.9474150493755809  8.5813545411100911   T   T   T
  4.6822427474807196  1.7951935891645605  6.5052860705518789   T   T   T
  5.3995248531386100  0.7075256660021803  8.5169522314109791   T   T   T
  1.6124767784393501  4.4699709529254505  4.1552772139421403   F   F   F
  0.7291705607722500  8.3841776481945498  8.5433454722840789   T   T   T
  3.8489998354379100 -1.8719661714611200 10.9039523768951110   T   T   T
  4.7108071293980700 -0.6050076784503897  6.4605130115875804   T   T   T
  3.0884936185949003 -0.6639246783699999  2.1129912140466800   F   F   F
  7.7773238895991099 -3.2655852651236201  2.0687029635728997   F   F   F
  3.1511551707769700  7.0356732198067107  8.7567202505458699   T   T   T
  3.8554014831130305  3.2036232901042405 10.6527212029906497   T   T   T
  1.4908573020050799  4.4860617939574894 10.7152174884121099   T   T   T
  1.6595117170496401  2.0897633047923203 10.6304670715632703   T   T   T
  7.6280298894749210 -3.3173486366103901  8.7672677619639003   T   T   T
  3.1177194685309404  4.3449613964495697  8.6146975173391791   T   T   T
  6.1386309054624002 -3.1809642628565000  4.4083608787354303   F   F   F
  6.1906928289230105  4.5230248433580806 10.6452301642493996   T   T   T
  0.1024873818230900  9.5966957202644210  6.4230405021084707   T   T   T
  5.4457641861943999  3.1206834342999996  8.5643427782555293   T   T   T
