Pt Pd Ni Co Fe 
 1.0000000000000000
     8.9921849999999992   -5.1708259999999999    0.0003830000000000
     0.0016270000000000   10.3507250000000006    0.0119590000000000
     0.0359360000000000   -0.0006580000000000   22.8809879999999986
 Pt  Pd  Ni  Co  Fe 
  13  17  15  18  17
Selective dynamics
Cartesian
  8.3774452028150694 -4.6146941369355199 10.8269013159980094   T   T   T
  7.5494571587195098 -3.3353160003060296  8.5778581018680296   T   T   T
  3.8926473941698796  5.8072417732380810  4.3159693871508402   F   F   F
  7.7076440764204284 -3.2047268840140397  2.1368646449592896   F   F   F
  0.8919659868102400  5.8528329833377999  2.1248445247008800   F   F   F
  0.9873376564563801  5.9435155584633002  8.4929535517316594   T   T   T
  1.6576189111875901  7.2081423158481899  4.3598324281079899   F   F   F
  0.9610479557922199  3.2901058143150599  8.5260931103274196   T   T   T
  3.9773681327746000  0.6476365179259401  4.3191660271896000   F   F   F
  5.4553958315555802  0.7729368397244502  8.6159109857636800   T   T   T
  7.6659498188466184 -0.5806853470407497  8.6210297025156795   T   T   T
  5.4411117875104091  5.8210938999505100  2.0539632878728500   F   F   F
  0.9179855932040499  0.5659404006583101  2.1948366375929700   F   F   F
  3.1589971930742298  1.9570752954331905  2.2057763772396699   F   F   F
  3.9246394260828796  3.3709497690706502 10.7888385422057382   T   T   T
  8.3672709596149808 -1.8440355549571794 10.9236023779587388   T   T   T
  4.6354644369976690 -0.6051686246214893  6.4720811165834293   T   T   T
  3.2036756111184599  2.0308000876576600  8.4995483031549401   T   T   T
  8.3354015116347302  0.6728052676950009  4.3933557916607500   F   F   F
  8.3555808804298710  3.3874788829637001  4.3573898495222103   F   F   F
  7.5869214052123093  2.0318949530575110  2.2021819905946298   F   F   F
  0.8765360678525300  0.5993069348794701  8.5019147900250491   T   T   T
  6.1964077481476094 -3.1190783578243599  4.2964789820698694   F   F   F
  3.1567828055951299  4.5495687760669901  2.1054256746403701   F   F   F
  7.5626759303705686 -0.6309004554191794  2.2138232657851096   F   F   F
  3.8913505294906794  0.6169023004823003 10.8937465883247988   T   T   T
  7.0042077139299499 -1.8925503917074202  6.4254284913586091   T   T   T
  3.1676335777014200  7.2656575427744201  2.0748226468853397   F   F   F
  4.6537314047886600  7.0940768686004212  6.5203240636355400   T   T   T
  3.1365660465364398 -0.6991105656635500  8.6203792981352994   T   T   T
  5.3489452949793694  0.6404161581209705  2.1746688008105699   F   F   F
  1.6331970066690500  2.0808703417138106  4.3142734083822498   F   F   F
  6.9197731505657396  0.7975705214179204  6.4777592317062593   T   T   T
  1.6824444913805099 -0.5879812704577599  4.3123802459680096   F   F   F
  1.7141600386622695  4.6837049498824195 10.6366853572878881   T   T   T
  0.1523391674655700  7.2141040800796210  6.4775645488554696   T   T   T
  6.2890586246238493  2.0833362799163906 10.6463118136921295   T   T   T
  6.0967505757705300  2.0481131500232497  4.3518079924116497   F   F   F
  3.2139010152153702  7.1386614807160598  8.5837372842045490   T   T   T
  4.7039382854561609  2.0738058598564502  6.3831169052858190   T   T   T
  4.6866976266707896  4.5197931570689507  6.4188930304089498   T   T   T
  1.6692689298147898  7.1777428236301803 10.6180192463200900   T   T   T
  2.4590765059088495  3.2948965644904402  6.3414693826048687   T   T   T
  7.6202958427324390  4.4241245197624215  8.5051489240852796   T   T   T
  0.2733646973863100  4.5389372429079700  6.3538583713177896   T   T   T
  7.0385577961071188  5.6852294918784212  6.4053876434401991   T   T   T
  1.5806957852653101 -0.7819152573445101 10.6341392951762295   T   T   T
  8.4733957988469406 -1.9554813751653397  4.3280409459418197   F   F   F
  2.3109790882126999  8.4696779676688720  6.4676434989697205   T   T   T
  5.4198874999243500  3.2605919067750810  2.2397988968063300   F   F   F
  0.8760916488336998  8.4560561866193300  8.5129659740610801   T   T   T
  3.9279280767473295 -1.8433371463407795  4.3025824200393092   F   F   F
  8.4774237019317003  3.2055997247752512 10.5691893167567592   T   T   T
  5.3823424482867903 -1.9851020478677399  8.7678723587957688   T   T   T
  0.2114822942919900  9.7126658877824106  6.4381971739938697   T   T   T
  3.8979657986993597  5.8811499713404203 10.5615970942282793   T   T   T
  0.2508429815277800  1.9965508588008301  6.3256344356611995   T   T   T
  6.1544526724893087 -0.5910355051598897  4.3944091723549903   F   F   F
  3.2679712607598095  4.6409010926378000  8.4887068732635900   T   T   T
  3.2305414529968393 -0.6061346283992899  2.1565068701422998   F   F   F
  8.4851760790095891  0.8301971269509599 10.6532856594551699   T   T   T
  2.4275105873526601  5.7970929116492300  6.4336016735376802   T   T   T
  7.6536786241495491  4.5593132993905909  2.1592722356552301   F   F   F
  5.3405220122272201  5.7808815213458109  8.5742677152662790   T   T   T
  8.5316893186543581 -4.4180042035717300  4.3640191432824595   F   F   F
  1.6234428884034497  4.5202056186275508  4.3087733152216501   F   F   F
  3.9307066611663797  3.2290883279509806  4.3158992361150998   F   F   F
  6.1888860448122403  4.5188332224392207 10.6130805124411580   T   T   T
  2.2960994538392803  0.7172455061965000  6.3416006826016398   T   T   T
  0.8926285312896399  3.2400570891270806  2.1798970517277199   F   F   F
  7.7170466168026595  2.0368224423684906  8.5718211572726002   T   T   T
  0.9083837285320299  8.4748166560484695  2.1273395105411499   F   F   F
  1.6182666568517898  1.9672154506349202 10.7095468326000098   T   T   T
  6.8734388093520895  3.2701639284793509  6.4709246992484495   T   T   T
  5.4093972671912196  3.3210292700656203  8.5321381235775391   T   T   T
  6.1206863330170096 -0.6031608770460104 10.6944955996427282   T   T   T
  3.8698575053213498 -2.0145062066155197 10.6936652705446082   T   T   T
  6.0637761705560589 -3.2303859315444399 10.7216869325693001   T   T   T
  5.3372487072223587 -1.8134821657717395  2.1674651996858398   F   F   F
  6.1501241100508990  4.5841447629953009  4.2725703926749796   F   F   F
