Pt Pd Ni Co Fe 
 1.0000000000000000
     8.9921849999999992   -5.1708259999999999    0.0003830000000000
     0.0016270000000000   10.3507250000000006    0.0119590000000000
     0.0359360000000000   -0.0006580000000000   22.8809879999999986
 Pt  Pd  Ni  Co  Fe 
  13  17  15  18  17
Selective dynamics
Cartesian
  8.3754447830923109 -4.6118001478946011 10.8302672044395685   T   T   T
  7.5418935476156381 -3.3320166418547799  8.5901486778340796   T   T   T
  3.8926473941698796  5.8072417732380810  4.3159693871508402   F   F   F
  7.7076440764204284 -3.2047268840140397  2.1368646449592896   F   F   F
  0.8919659868102400  5.8528329833377999  2.1248445247008800   F   F   F
  0.9798080172482899  5.9406774844902701  8.4802997858069702   T   T   T
  1.6576189111875901  7.2081423158481899  4.3598324281079899   F   F   F
  0.9523700410312699  3.2845595397177303  8.5266155253006701   T   T   T
  3.9773681327746000  0.6476365179259401  4.3191660271896000   F   F   F
  5.4455186630989587  0.7775653253945907  8.6240483380859398   T   T   T
  7.6602229025588988 -0.5761839312458196  8.6199533898616192   T   T   T
  5.4411117875104091  5.8210938999505100  2.0539632878728500   F   F   F
  0.9179855932040499  0.5659404006583101  2.1948366375929700   F   F   F
  3.1589971930742298  1.9570752954331905  2.2057763772396699   F   F   F
  3.9221471815438798  3.3732403361729904 10.7759462325825393   T   T   T
  8.3693623204287491 -1.8380113853501394 10.9244070734154093   T   T   T
  4.6422581315175702 -0.6036391314897102  6.4771034220782102   T   T   T
  3.1991548835443897  2.0246487231421302  8.5005305771207489   T   T   T
  8.3354015116347302  0.6728052676950009  4.3933557916607500   F   F   F
  8.3555808804298710  3.3874788829637001  4.3573898495222103   F   F   F
  7.5869214052123093  2.0318949530575110  2.2021819905946298   F   F   F
  0.8681261642456999  0.5980910218247800  8.5059152698001803   T   T   T
  6.1964077481476094 -3.1190783578243599  4.2964789820698694   F   F   F
  3.1567828055951299  4.5495687760669901  2.1054256746403701   F   F   F
  7.5626759303705686 -0.6309004554191794  2.2138232657851096   F   F   F
  3.8853567022113196  0.6140736709185100 10.8941976178995787   T   T   T
  7.0039668212122992 -1.8911475999559795  6.4314924817184602   T   T   T
  3.1676335777014200  7.2656575427744201  2.0748226468853397   F   F   F
  4.6576587494604000  7.0949475745289003  6.5172139755173992   T   T   T
  3.1354489455356198 -0.7013651448490600  8.6165419695824195   T   T   T
  5.3489452949793694  0.6404161581209705  2.1746688008105699   F   F   F
  1.6331970066690500  2.0808703417138106  4.3142734083822498   F   F   F
  6.9149085090364695  0.7923126348508406  6.4780091886946893   T   T   T
  1.6824444913805099 -0.5879812704577599  4.3123802459680096   F   F   F
  1.7122961208814498  4.6869410283142905 10.6196828750392083   T   T   T
  0.1514792480660800  7.2229537740179399  6.4635703287233195   T   T   T
  6.2951568442133006  2.0776308683369500 10.6432018408809590   T   T   T
  6.0967505757705300  2.0481131500232497  4.3518079924116497   F   F   F
  3.2074388616931500  7.1338055057288612  8.5762189467673284   T   T   T
  4.7021396413364993  2.0743590921729904  6.3844067592668798   T   T   T
  4.6914165445315890  4.5178850012621705  6.4153773577717903   T   T   T
  1.6791014209163100  7.1841069789222907 10.5910552918597087   T   T   T
  2.4565078140957497  3.2947352244611605  6.3422139862091695   T   T   T
  7.6161748964682392  4.4260467199239306  8.5042146882878988   T   T   T
  0.2767814124776000  4.5387028424736799  6.3406604880794397   T   T   T
  7.0497488567686286  5.6954231023891504  6.4104530409160692   T   T   T
  1.5883046445004099 -0.7800223918760201 10.6282147421755901   T   T   T
  8.4733957988469406 -1.9554813751653397  4.3280409459418197   F   F   F
  2.3160181309283101  8.4655066515284805  6.4547158707077301   T   T   T
  5.4198874999243500  3.2605919067750810  2.2397988968063300   F   F   F
  0.8742697504123098  8.4528733906438607  8.5046289063540090   T   T   T
  3.9279280767473295 -1.8433371463407795  4.3025824200393092   F   F   F
  8.4845662083335487  3.2007807013075595 10.5557556138454487   T   T   T
  5.3780033484610499 -1.9845337638497400  8.7768738358439098   T   T   T
  0.2117711671932100  9.7117557602400613  6.4234685370776692   T   T   T
  3.9167823340798198  5.8820079232838607 10.5507266839492591   T   T   T
  0.2520686429297900  1.9959632981306901  6.3185968965974295   T   T   T
  6.1544526724893087 -0.5910355051598897  4.3944091723549903   F   F   F
  3.2607978118964396  4.6449913409369001  8.4676809815564802   T   T   T
  3.2305414529968393 -0.6061346283992899  2.1565068701422998   F   F   F
  8.4878765691581091  0.8358556612382406 10.6398334636484897   T   T   T
  2.4259612763967695  5.7954863924822106  6.4293522443633293   T   T   T
  7.6536786241495491  4.5593132993905909  2.1592722356552301   F   F   F
  5.3371341597253101  5.7883509543161002  8.5641292168176495   T   T   T
  8.5316893186543581 -4.4180042035717300  4.3640191432824595   F   F   F
  1.6234428884034497  4.5202056186275508  4.3087733152216501   F   F   F
  3.9307066611663797  3.2290883279509806  4.3158992361150998   F   F   F
  6.1901779336038691  4.5149084825075203 10.6107496687878484   T   T   T
  2.2998675332630296  0.7144304434638500  6.3385692817474704   T   T   T
  0.8926285312896399  3.2400570891270806  2.1798970517277199   F   F   F
  7.7174908013871786  2.0403308606155108  8.5675364878502798   T   T   T
  0.9083837285320299  8.4748166560484695  2.1273395105411499   F   F   F
  1.6191043501420999  1.9665144043324900 10.7095566825037984   T   T   T
  6.8750894593424796  3.2683388947546206  6.4673751491048392   T   T   T
  5.4084671451352300  3.3186790218343805  8.5289494919902094   T   T   T
  6.1189308559931899 -0.6050004294612297 10.7107956063213106   T   T   T
  3.8718486972735295 -2.0135841757678201 10.6965290078016686   T   T   T
  6.0595938985160291 -3.2276567730150201 10.7261738570818093   T   T   T
  5.3372487072223587 -1.8134821657717395  2.1674651996858398   F   F   F
  6.1501241100508990  4.5841447629953009  4.2725703926749796   F   F   F
