Pt Pd Ni Co Fe 
 1.0000000000000000
     9.0348150000000000   -5.1878500000000001   -0.0082870000000000
    -0.0577960000000000   10.2815770000000004   -0.0342180000000000
    -0.0094090000000000   -0.0583070000000000   22.9315239999999996
 Pt  Pd  Ni  Co  Fe 
  17  17  16  16  14
Selective dynamics
Cartesian
  4.6006265037675300  7.0770374292333402  6.5003584806212107   T   T   T
  2.2723384901295303  8.3811760174655916  6.3838894662349599   T   T   T
  3.8239752783414902  5.8870920654534213  4.1796454859345005   F   F   F
  8.3859637510690703 -1.9815607092418397  4.2504054727682599   F   F   F
  6.1903643558965600  1.9552624630081807 10.7140115440989696   T   T   T
  5.3417601958567298 -1.8742766868847598  2.2315170744380901   F   F   F
  1.5636208816729200  7.1292529353685605 10.8626089817692701   T   T   T
  3.8586195848603499  0.6802254004777502 10.7900885385782708   T   T   T
  0.1560326356682600  4.4921560922287300  6.4621991912094900   T   T   T
  3.8303538491239797  3.2111309604918401  4.1806483240697005   F   F   F
  4.5907452064401308  4.3573708293815399  6.5201960681923499   T   T   T
  5.4031295785255802 -1.9818454422245597  8.7908058940593801   T   T   T
  7.7144308625757603  2.0553405409815801  2.1166878407740000   F   F   F
  6.9439188639670100  5.7154724305682816  6.5393985275699196   T   T   T
  0.9549652661722100  5.8279637339213304  2.0495320194363402   F   F   F
  8.5061127848411608 -4.5936905434795205  4.2084181779746697   F   F   F
  0.8219766917724199  0.7020030173323601  8.6076576179752493   T   T   T
  3.0130707060930204  1.8846078006032601  2.0489648081850600   F   F   F
  6.9245881340492801 -1.9272179738997104  6.5388863420501799   T   T   T
  3.8352314982648599  5.6543984198978299 10.8836580545910699   T   T   T
  7.6700937781329408 -0.6443774681683297  2.1284115150151899   F   F   F
  3.1355356298371100 -0.6424677838211700  8.6403577614326696   T   T   T
  3.8704313055416901  0.5406607942746700  4.2460580712174405   F   F   F
  6.9219417431128498  3.0614767242895504  6.4333879810243504   T   T   T
  0.9156853093664100  5.8322708828458802  8.6432592779692090   T   T   T
  8.4002501328315304  0.6999976181998903  4.3223185989599395   F   F   F
  2.3823389782349795  0.7211576746885904  6.4134029350811499   T   T   T
  8.5053376869081507 -4.5439572598211999 10.9618612963982098   T   T   T
  5.4135491881258497  5.8045102062469507  2.0249934280727899   F   F   F
  6.1836377157977802  4.4653066085956405  4.2197673472265400   F   F   F
  6.1917801508133596 -3.2119683459040203 11.0500013204997103   T   T   T
  2.3500136586217701  5.7696966822345601  6.4241056305346893   T   T   T
  5.3783086565193203  3.2087141688729601  2.0195530144979901   F   F   F
  7.6778915389694706 -0.6322921578423397  8.7230512232138402   T   T   T
  1.6495142719320199 -0.6720939292419901  4.2427020483958602   F   F   F
  0.9206866733889000  8.4574018685521004  2.0792267786469401   F   F   F
  8.4953478535721008  3.1963075534456000  4.2684233849435795   F   F   F
  8.3755297568842995  0.6235739958315503 10.8022995196693401   T   T   T
  5.3847502469268598  0.6350913278920304  2.1369248363284901   F   F   F
  3.0419857766422003  7.1774459294310002  2.0790778569808896   F   F   F
  7.7322861009001196  4.5563589669944609  1.9888086998149499   F   F   F
  6.8586037774370503  0.6192328226696503  6.4633698790489502   T   T   T
  8.4197150507716607  3.1533899250028807 10.6152691430635091   T   T   T
  3.8947391445540398 -1.9288468570065298  4.3320373152628395   F   F   F
  6.1469776693832205  1.8416134760028604  4.2500179884952596   F   F   F
  7.6095719472795800  4.4148596020261399  8.6789124718339501   T   T   T
  6.1211557056396195 -0.7005982898245897  4.4206661391918693   F   F   F
  0.8906570835045601  0.6256791597498300  2.0793729537431100   F   F   F
  0.1779700553288800  1.9217543017891900  6.4109285495903894   T   T   T
  8.4374993411666921 -1.9370637538711302 10.7485248430122109   T   T   T
  0.0690442884786400  7.1299682669428197  6.4584273394352705   T   T   T
  3.1239877744683899  4.5492304115447197  1.9659857730685597   F   F   F
  0.8885769102528900  3.2106242961704199  2.0994919287167799   F   F   F
  1.6449792590904702 -0.6619705175025400 10.6932167349972200   T   T   T
  3.2468645553907800  2.0432172474981400  8.5240014713610410   T   T   T
  1.6028032878885099  7.1660965421379306  4.2033323918114096   F   F   F
  5.3313935802995998  5.6460849100348511  8.7094943900262791   T   T   T
  1.6074005403529301  1.9284635342836900  4.2163495196929004   F   F   F
  6.1521185520698891 -0.6094040994427301 10.8049482363215397   T   T   T
  2.3357139770433601  3.1794768567842797  6.3822898818488394   T   T   T
  0.9838537059079899  3.2217849482312704  8.5595281174990099   T   T   T
  7.6650574345721800  1.9446203379470901  8.5774805782781893   T   T   T
  4.6821969141965001  1.7972470246112999  6.5115920920480299   T   T   T
  5.3964669679511994  0.7060618489520006  8.5211117823703901   T   T   T
  1.6124767784393501  4.4699709529254505  4.1552772139421403   F   F   F
  0.7305140585687800  8.3837912097795897  8.5392575116887102   T   T   T
  3.8499104761654204 -1.8918899480925400 10.9065106566760104   T   T   T
  4.7073371562548809 -0.6085436068001602  6.4609100669840798   T   T   T
  3.0884936185949003 -0.6639246783699999  2.1129912140466800   F   F   F
  7.7773238895991099 -3.2655852651236201  2.0687029635728997   F   F   F
  3.1466379764165802  7.0363603861158897  8.7589901909335506   T   T   T
  3.8445131294730701  3.1769495511489598 10.6474845433790897   T   T   T
  1.4754970627685400  4.4595331032202203 10.6998924815414398   T   T   T
  1.6459940668518400  2.0573801471331703 10.6469862082846696   T   T   T
  7.6293797645531995 -3.3212829049070001  8.7675694622799902   T   T   T
  3.1204980879595596  4.3574207488950805  8.6068254135720110   T   T   T
  6.1386309054624002 -3.1809642628565000  4.4083608787354303   F   F   F
  6.1787609128319305  4.5001979091512396 10.6418380561956294   T   T   T
  0.1018386167174500  9.5964035360265001  6.4199074643964398   T   T   T
  5.4482445629801104  3.1246845409461796  8.5664024590167287   T   T   T
