Pt Pd Ni Co Fe 
 1.0000000000000000
     8.9737360000000006   -5.1895480000000003    0.0044630000000000
    -0.0247690000000000   10.3424999999999994   -0.0160880000000000
     0.0218050000000000   -0.0357650000000000   22.9062790000000014
 Pt  Pd  Ni  Co  Fe 
  14  18  16  14  18
Selective dynamics
Cartesian
  4.6430782630992100  7.0566912276355191  6.5111278842558606   T   T   T
  3.8434341685613003  3.1618471165721593  4.1720377703352609   F   F   F
  2.3900843753558902  8.4716218352235995  6.4429862305526910   T   T   T
  1.6689237788263500  1.9530213108171997 10.8060861251440414   T   T   T
  6.1353156227723700  2.0203533416382999 10.7922358203600712   T   T   T
  6.8484051569091893  0.6318112037187394  6.5144019818972900   T   T   T
  8.3893042481001014  0.6189827366325290  4.2914068217444701   F   F   F
  7.5941178089244206  2.0238410498887092  2.1339270430715800   F   F   F
  3.8712985329052900  0.5865741378768097 10.8279055505583202   T   T   T
  8.3822278296950206 -1.9105563679889799 10.8029036477293108   T   T   T
  7.6599880583818303 -3.2420190979773906  8.5072241902274115   T   T   T
  1.7465294696992901  4.6668485674119395 10.9098140125483010   T   T   T
  0.0982387163358800  9.8523310662911001  6.4216206725010903   T   T   T
  3.1683273304585402  1.8807950547506198  8.4604632705291003   T   T   T
  3.0879940167717903  7.2065646842525091  2.0383573738187999   F   F   F
  5.3580848439037201 -1.9174009104823604  8.7192827182238712   T   T   T
  5.2911096639882409  0.6145995532517596  2.1562708040735301   F   F   F
  0.2009602077718000  4.4410128072447899  6.4763584368837002   T   T   T
  7.6274873027454309 -0.7448354201928007  2.1230267904965299   F   F   F
  0.1534763563081900  7.1368129258231594  6.4893701897146503   T   T   T
  3.1862555118030400  4.5598753792149092  8.5378027304318618   T   T   T
  6.7900690519987696  3.2942143502878198  6.5079303846353804   T   T   T
  4.6131164912535612 -0.5654120195121904  6.4652769814025604   T   T   T
  6.2336876798260006  4.5046113786599404  4.2346264934421400   F   F   F
  5.4439638787326610  5.8790764767157597  2.0884195399175400   F   F   F
  8.3256133894755102 -4.6722240711131899 10.8434307730881514   T   T   T
  3.8796880743561704  5.8898649734904707  4.2374955943543302   F   F   F
  0.8642735558572899  5.8223176079504801  8.6706697857246908   T   T   T
  6.1142591508528703 -0.6707915627680506 10.9546617285356511   T   T   T
  6.2200378730155998 -3.1225489654787699  4.2300273507578501   F   F   F
  0.8533922481525000  8.4973582564006396  8.6821994365192694   T   T   T
  1.6082730148560105  7.2612302910314996  4.1956368765854002   F   F   F
  6.1247579379391199  1.9315150185415597  4.2653890679709203   F   F   F
  4.5739962501535896  4.5135160647271100  6.4173441474455606   T   T   T
  1.6644036700474198 -0.6854363329023200 10.7666196897967907   T   T   T
  0.8463777091582401  0.6792340854452498  2.1292028348511503   F   F   F
  0.9306298231114501  5.7488227154250291  2.0877640377489102   F   F   F
  8.4015468280473709  3.2784073946180290  4.2870843177435898   F   F   F
  3.0827689248922399 -0.6059266449472802  2.1983222187270202   F   F   F
  7.5451084322848905  1.9398252182388191  8.6663212940565906   T   T   T
  6.9406722131671001 -1.9650098572495203  6.3737992374910002   T   T   T
  0.9099874460445101  3.1909723695855097  8.5608162418463110   T   T   T
  8.4531191738295224 -4.5097434252340207  4.2377395114023502   F   F   F
  0.8776715024073801  8.5643067950056189  2.0710513739012701   F   F   F
  4.5913506381876115  2.0052179434485193  6.3671612825841111   T   T   T
  6.0390037822223901  4.5391040759453904 10.6620490150491900   T   T   T
  5.3827983492824414  3.2363922920629395  8.6009853850402909   T   T   T
  3.0882547780026703  4.5345061658782804  2.1293810800148800   F   F   F
  6.0766268597464803 -0.5923327127837904  4.3040505004969196   F   F   F
  8.4286489282095225  3.1111789319203296 10.7211605764275912   T   T   T
  1.5906127408713102  1.9122433164412398  4.1969607746667004   F   F   F
  8.5164697856478497 -1.9732379051797901  4.2869801096066702   F   F   F
  3.1234312379265301  7.1714070224028994  8.7070701662192800   T   T   T
  7.5324091783858709  4.5067950803414085  8.6408048198347718   T   T   T
  5.3168120926736808  3.2260550955950298  2.0916868788170602   F   F   F
  3.9813473510720900  5.8650528972283098 10.6740556155213202   T   T   T
  3.9215052421491103 -1.7871002893979799  4.2926539765271201   F   F   F
  6.0570931302165301 -3.3649208191818301 10.7286416391335901   T   T   T
  7.5886401208869101 -0.5960136924617605  8.6805058830332893   T   T   T
  3.9517490652116001  3.3472505641524597 10.7240960242401204   T   T   T
  1.6931108663660699  7.1711009073486602 10.7042932125310610   T   T   T
  3.0754867689479299  1.9173441830332891  2.1953668739203005   F   F   F
  3.1083394959279902 -0.6737099109141901  8.6828233311060501   T   T   T
  6.8576046784430496  5.8606464537775294  6.4254430346354798   T   T   T
  2.3649028311837195  0.7789536354035698  6.3120091461030396   T   T   T
  1.5994919073465401 -0.5134685879653502  4.2105758266193805   F   F   F
  2.4180090039748405  5.7694644812940297  6.3834046396810606   T   T   T
  7.7017892410897302  4.5144821194164182  2.1137676487933299   F   F   F
  3.7847976961782606 -2.0386709666070502 10.7780681754842007   T   T   T
  2.4112784309397197  3.1814534562801198  6.4008886177778814   T   T   T
  3.8579979893453600  0.5836011763921797  4.2781421126485597   F   F   F
  8.3846116414331604  0.7229005150337197 10.7930666487922515   T   T   T
  0.9359308477885201  3.2168383822531799  2.1969178725793101   F   F   F
  5.3400357891770209 -1.9041534564875500  2.0917558592520802   F   F   F
  7.7822544619495302 -3.2591774852262301  2.1367210330127300   F   F   F
  1.5930269966858701  4.5044938514067798  4.2208811355935802   F   F   F
  0.8818710728962100  0.7128444413846199  8.6338617929319810   T   T   T
  5.4646688185369303  0.6982815897280593  8.6614703460362605   T   T   T
  5.4153397480469003  5.7535529000670991  8.6508702495138419   T   T   T
  0.1420902489886900  1.9999753240730600  6.3429799065522010   T   T   T
