Pt Pd Ni Co Fe 
 1.0000000000000000
     8.9788379999999997   -5.2082129999999998   -0.0213960000000000
    -0.0412480000000000   10.3512199999999996    0.0130200000000000
     0.0054110000000000    0.0005430000000000   22.9185650000000010
 Pt  Pd  Ni  Co  Fe 
  14  17  16  18  15
Selective dynamics
Cartesian
  7.7193804411228291  4.5383129185024904  8.5578331713503299   T   T   T
  3.8472279272903993  3.3669036896164504 10.8741519443130610   T   T   T
  3.0419967703092401  4.5652050714366599  8.5324490938349200   T   T   T
  3.1599583142744399  7.1724193342739389  8.6318324884663191   T   T   T
  0.0249724247728800  7.1147997468363400  6.4780818889902809   T   T   T
  6.8695451438009192 -1.8635917197656302  6.3810929091636597   T   T   T
  7.6009129494894196  4.6132075798908501  2.1552218073080400   F   F   F
  2.3132836765853000  8.4506027390723997  6.5287229345858604   T   T   T
  3.2118574091799204  7.1291979565156893  2.1541807410250602   F   F   F
  4.6919896944821389  1.9917391026291598  6.3699849584483399   T   T   T
  7.5582525043471298  1.9924428401966296  2.1785904164812702   F   F   F
  0.9157907676676700  5.8182674441230500  2.2292015144041701   F   F   F
  3.8992219582130900  3.3433551464980402  4.2189838639331700   F   F   F
  8.5493647217542694  0.6915646664657200 10.8393587371590705   T   T   T
  6.1618818817553889 -0.6566462475026599 10.8023577572131906   T   T   T
  0.1346074955079400  1.9979769967993701  6.4554338526275608   T   T   T
  7.6173961354212603 -3.1772066580818201  8.6385038487233796   T   T   T
  3.1466441412764499  1.9473228138803205  2.1664615543788899   F   F   F
  7.6047452347402391  1.8663205651600909  8.6433364968091002   T   T   T
  6.1645224463263588  2.0246707314061503 10.9507817196894610   T   T   T
  4.6341524590117400 -0.6439218542541898  6.4416492843105200   T   T   T
  1.6060573262232098  1.9518764454873201  4.2838041007964902   F   F   F
  6.7618797698005793  5.7938286304351898  6.3450524210916806   T   T   T
  5.3871777777062100  3.2806870605244898  8.5677797037985108   T   T   T
  7.5778232812093202 -0.7120675053215602  2.2097767403574804   F   F   F
  2.3462198069226798  0.6801689528395998  6.4724619292936802   T   T   T
  6.1618052625322193 -3.2867860474876998 10.8607379040187411   T   T   T
  3.1814502036198502 -0.6293723882927499  2.1491083189296298   F   F   F
  3.7608605865179396  0.6001864973638200 10.9622894075440200   T   T   T
  1.6285037957867998  7.1735624794022401  4.4164558931425200   F   F   F
  3.1167030524901200  1.8964313545101701  8.6682342817096600   T   T   T
  5.3806779675422405  0.6626019246464702  2.2360097222765400   F   F   F
  1.6529520385089498  4.5847783173054903 10.7055954442645707   T   T   T
  5.4346789406024598 -1.9706230782870600  2.1245341666486999   F   F   F
  3.9112373223580601  5.8733577496507587  4.2389657535399001   F   F   F
  2.3512557041272499  3.3615863024342096  6.4053814535094311   T   T   T
  5.3508665287185195  5.8883748183589697  8.5814185454616609   T   T   T
  0.9498208918419899  0.6308780285614201  8.6767131880905914   T   T   T
  3.9126539160597096  0.6116308844049601  4.2794181412363903   F   F   F
  1.5321193334903997  2.0228963102515696 10.7331262270462613   T   T   T
  8.3397206931362486 -4.5234432934256388  4.2202297694188902   F   F   F
  0.8403565851943899  3.2118160218449998  2.2117388787444701   F   F   F
  7.6374312047697908 -0.6524104059222305  8.5773722294916901   T   T   T
  2.3874796462057795  5.7795670869828699  6.4152143991056008   T   T   T
  1.6535418459916298 -0.6262523938456900  4.2691329113219307   F   F   F
  3.1377047227881198  4.5616972532853000  2.1519826502706798   F   F   F
  6.8609379787302798  3.2662814588664597  6.3244240607062405   T   T   T
  0.9248763697510100  8.4432989495003401  8.7492673372834098   T   T   T
  6.1398893831714600  4.5445905141834801  4.2460712249242203   F   F   F
  8.5281327321598006 -1.8841486853960798 10.6458234505475602   T   T   T
  1.5695747333478898  4.5429017749520391  4.3668567168710100   F   F   F
  3.8949666778278900  5.8625836503358393 10.6793630391696102   T   T   T
  5.4006066856065393  0.5347614049365002  8.6009755984202201   T   T   T
  8.3098294592862096 -1.9267845462439099  4.3023686438286299   F   F   F
  8.2736709251013796  3.2331483962339900  4.3164912169118397   F   F   F
  1.5670791951651801 -0.6133923434702400 10.6936885495838609   T   T   T
  5.3444390464836600  3.3720084525468805  2.1064798581237403   F   F   F
  0.1920872803555000  4.5614247547283995  6.4995349860304605   T   T   T
  4.5536949213665405  7.0970351032558900  6.3600836471734405   T   T   T
  3.8714756837804503 -1.9820134833985099 10.7263674221573098   T   T   T
  6.1501421254848099  4.5675955447715495 10.6769313205154699   T   T   T
  5.3497964444922799  5.8042587160604802  2.1768357338723199   F   F   F
  7.5947373436527492 -3.2104239970961892  2.2386521130934902   F   F   F
  0.0720327396136500  9.7039496354102290  6.3040423591678296   T   T   T
  5.3656848158927888 -1.8384865596397995  8.6302712579848304   T   T   T
  3.1312859464717402 -0.6447403180449499  8.7457483926686805   T   T   T
  4.5442515444258103  4.6173844545213099  6.3800488983943495   T   T   T
  0.8551797242653899  3.2526225394054302  8.6276966622176108   T   T   T
  3.9168476420779297 -1.8956478022700698  4.2550945243283502   F   F   F
  0.8955600578920400  0.6302141179633400  2.1746584184948401   F   F   F
  8.4005540600828894  0.5972304914798602  4.3202537573103301   F   F   F
  0.8412208529369499  5.8107322419671092  8.5902107469860507   T   T   T
  6.1333675015952505  2.0270191112707194  4.2554068076356906   F   F   F
  6.8537838426670392  0.6660462659877204  6.4595482961536801   T   T   T
  6.1766593521010593 -3.2632444910199094  4.1695804740393196   F   F   F
  8.3936602679438295  3.3193916454926407 10.7282192947179507   T   T   T
  8.4701705386154487 -4.4990226771561694 10.6904913903296297   T   T   T
  0.8864008493122700  8.4740832171745311  2.2039772637182500   F   F   F
  1.7131659471179799  7.2270912894912600 10.7734873833055005   T   T   T
  6.0545899712657496 -0.6603838256964599  4.2317364992277104   F   F   F
