Pt Pd Ni Co Fe 
 1.0000000000000000
     8.9645670000000006   -5.0970750000000002   -0.0554420000000000
     0.0644260000000000   10.3118449999999999    0.0416760000000000
    -0.0230490000000000    0.0365270000000000   22.9434980000000017
 Pt  Pd  Ni  Co  Fe 
  15  16  18  14  17
Selective dynamics
Cartesian
  5.3870828187918800  5.9518448315948005  2.1903580643572802   F   F   F
  8.5466523059781512 -1.8213819792956907 10.7209421323641010   T   T   T
  6.1990927015416704 -3.1474834023221603 10.8029783772569008   T   T   T
  0.0838351172167500  2.0069463043812599  6.5332465719600599   T   T   T
  5.5516056663502207  5.8099632408316193  8.5433994872459209   T   T   T
  2.4960225998128007  3.2808505141211501  6.4287695442385600   T   T   T
  3.1108389734638497  4.5765727658316395  2.2200361440076199   F   F   F
  5.4736043491441704  3.2765891183954396  2.1412797793182201   F   F   F
  8.5118610872452418 -4.4714213557361910 10.7795692928803994   T   T   T
  3.2270068148668098  7.1297169330693499  8.6316979737897803   T   T   T
  1.7240972492627002  2.0090247608398597  4.2132858029558804   F   F   F
  8.3948903863178916  3.2125248473095698  4.2107817997867807   F   F   F
  8.3363933556863898 -4.4341334078142900  4.2143548522103407   F   F   F
  0.8946834599517101  8.3021327900166693  8.5214928470194202   T   T   T
  0.9559375848767601  0.6339653356194799  8.5492752646789203   T   T   T
  8.4366228722545618  3.2026448348232295 10.7558901820633999   T   T   T
  5.3198535968514600  0.7027058501848499  2.1030956998902401   F   F   F
  3.2697657906595001  1.9191806230603701  8.5169802030704815   T   T   T
  1.7334805667603601  6.9715368888565692 10.8809597304790397   T   T   T
  3.9282583097154204 -1.8422280678083600 10.8303582686190811   T   T   T
  8.4049067444106988 -1.7706763441735101  4.3305708301336807   F   F   F
  6.1240626206992603  4.4964738285717401 10.8312707817191214   T   T   T
  6.1027964217414796 -0.5341592115453601  4.3462863305578407   F   F   F
  4.7856005385516305  7.1692649748347606  6.4596513875769004   T   T   T
  2.3887810423421403  5.8790677657951997  6.4539585181792809   T   T   T
  6.1266030998770802  1.8333932615913704 10.6955290044139613   T   T   T
  5.5351691286114306  3.1676719240707603  8.4501650874247005   T   T   T
  7.6388748138537608 -3.0928996619441702  2.0820915662532800   F   F   F
  3.8907452164992300 -1.9529003018489701  4.2754445050562202   F   F   F
  1.7044892512269501 -0.6570281212761000  4.2506117364040605   F   F   F
  7.6604480056419799 -0.4703623935913703  2.1224154197492004   F   F   F
  3.2499231448477603 -0.6419319922542901  8.4686368291610012   T   T   T
  0.9436131066630500  3.2758924776550398  2.1555366363757802   F   F   F
  8.4544046081982120  0.6540937725199605 10.5434920576823412   T   T   T
  4.7677236162894605  4.5111024140845304  6.3743776246318005   T   T   T
  6.1169048187337811  4.5605297816928605  4.3095715048250405   F   F   F
  3.9000825506956098  5.8301186427116996  4.3561074636363006   F   F   F
  8.4479339068853321  0.7504322492784800  4.3213217414425804   F   F   F
  3.9290383993408100  5.7003337640909102 10.6827457270793413   T   T   T
  1.6820086118226902  7.0628998684053306  4.3576128834506207   F   F   F
  0.1953463405439600  9.6569235985758812  6.4625339524334802   T   T   T
  3.1959113917413799  4.5268400439600400  8.5944281291595210   T   T   T
  6.0966042464075896 -3.1676756101544696  4.2979834548116607   F   F   F
  3.1206443418142205  7.2933173037391104  2.1258434527795602   F   F   F
  1.7572532733427302 -0.5964118316304803 10.6333612307550212   T   T   T
  0.1352121689447900  7.0857060859630696  6.4311883358438209   T   T   T
  0.9476342752742800  0.6020212442032500  2.0803049053747200   F   F   F
  2.4425219387226300  8.4948351263136992  6.4888429915363410   T   T   T
  2.4773362274139501  0.6503184578676798  6.3832785461487003   T   T   T
  3.9110449744960003  0.7808161282998097  4.2608044967819607   F   F   F
  4.5916620185988606 -0.4738498118005599  6.4428063304994012   T   T   T
  0.1055829162946600  4.6162167917663401  6.5499998856463195   T   T   T
  1.8576626032222103  1.9173703076077697 10.6555431577419810   T   T   T
  7.7208658518635902  4.5444861663362390  8.4544021431298209   T   T   T
  0.9378529665977400  3.3243223690618398  8.6087347746966412   T   T   T
  6.9692612021542502  5.7880101079131796  6.4154771955918610   T   T   T
  3.9135904785474001  0.5754202272587600 10.5259922001634401   T   T   T
  1.7849256587894802  4.4845260605007402 10.5577822097257616   T   T   T
  6.2043057347736204 -0.6275654140948802 10.5139165470811200   T   T   T
  1.6838353074473402  4.6500639295675796  4.3384246163743603   F   F   F
  4.8142656256222907  1.9527905462440995  6.2564526304968204   T   T   T
  0.9019420292738101  5.7100463765954510  8.5867979128080201   T   T   T
  7.6983677358718099  1.8339020294138604  8.4462152214768604   T   T   T
  6.9914287393956513  3.3618628589395700  6.4005971575609797   T   T   T
  6.1475578831355504  1.9961974845924599  4.2959753701033803   F   F   F
  6.9894530114117401  0.7634643304870696  6.4459484744682802   T   T   T
  5.4559673887908291  0.5320323633862502  8.4724046582403005   T   T   T
  3.7959438999136701  3.2410268493202699 10.6663684640483805   T   T   T
  6.8414972759379005 -1.7436635083173202  6.4848251043849210   T   T   T
  7.7419376633189003  2.0091791796972998  2.0305414884455204   F   F   F
  0.9495897264283101  5.8730926849553207  2.2589322638409404   F   F   F
  3.9220389167086398  3.3200706070967394  4.2947413434796404   F   F   F
  7.7480476476792601 -0.5871761852339197  8.5773895494451207   T   T   T
  5.4530292720995295 -1.8605421600301002  8.6089012061097794   T   T   T
  5.3476260759139098 -1.8655597480013597  2.1358807246250202   F   F   F
  0.9082608755440802  8.3550907069620202  2.1285184107234403   F   F   F
  3.0772893685651601 -0.5668594718032401  2.0913831529290401   F   F   F
  7.6547168755615100 -3.1862211706348900  8.6168799260741000   T   T   T
  7.7483230520549302  4.6192245030598604  2.0849841662146202   F   F   F
  3.0990653512511206  1.9524236310853897  2.0779178670889604   F   F   F
