Pt Pd Ni Co Fe 
 1.0000000000000000
     8.9564489999999992   -5.1570619999999998   -0.0271120000000000
     0.0040050000000000   10.3273039999999998    0.0160500000000000
    -0.0007110000000000    0.0043940000000000   22.9221719999999998
 Pt  Pd  Ni  Co  Fe 
  14  14  18  17  17
Selective dynamics
Cartesian
  3.8562813121235400 -1.8876406635273799 10.6864989487780200   T   T   T
  0.1093246692060600  7.1824762374336801  6.4215216708212806   T   T   T
  6.8060314606247099  0.6715550247098402  6.4431601754948602   T   T   T
  0.9377088831997199  0.6896621711176399  8.6099451179745206   T   T   T
  6.0297975734734788  1.9929540069042400 10.7712164986000811   T   T   T
  5.3693294947036199 -1.9282660622261796  2.1660517766565799   F   F   F
  3.0683621937922196  4.4777600773001005  8.6011405057887007   T   T   T
  6.2151291912419993 -0.6163698736398597 10.7235536825264592   T   T   T
  4.6609848366000293  7.2147053255158200  6.5082415482803198   T   T   T
  3.0932895416499897 -0.5624341614634399  2.2287870936206602   F   F   F
  7.6093374991643090 -3.1081447997230800  8.5285336076554596   T   T   T
  2.3624068652668795  8.4874333003628397  6.4639619978807596   T   T   T
  2.4116307747037200  0.7955267667491002  6.3597003113109798   T   T   T
  3.8809372408981195  3.3465316861107799  4.2494234849108601   F   F   F
  7.6712127001193702 -3.2311567095729394  2.2168095083451198   F   F   F
  6.1943548827069899  4.6003493621276004 10.8734400138519796   T   T   T
  5.4006020397697503  3.2841272871212004  2.1274969764408600   F   F   F
  7.6488536375980187  1.9747082015441806  2.1334775190525801   F   F   F
  8.4511381616173793 -1.8565402960131596  4.3013317295692000   F   F   F
  7.6181988428023493  1.9934849355659001  8.6420758541531590   T   T   T
  5.3864831497952697  5.8132026667259797  8.6385202938722809   T   T   T
  6.0927736364864096 -3.2870185415741799  4.3743477350891595   F   F   F
  2.3577439406705993  5.8253103215334008  6.3917714983889198   T   T   T
  1.5909892305692399 -0.5714971331581600 10.8592255749637197   T   T   T
  4.7168233928427590  4.5127087988507002  6.4062916275482999   T   T   T
  3.7679491367410494  5.8121921456756001 10.8688395934658590   T   T   T
  6.0917418536803192 -0.5683981391728999  4.2754380865164201   F   F   F
  0.9559215529310700  5.8569386235745995  2.1763371181949402   F   F   F
  6.1556298992491492  1.9978116932937409  4.2542864562780798   F   F   F
  0.9124667797321799  8.4260387598293214  8.6481952456583997   T   T   T
  3.1303599903834294  4.6015094344370002  2.1420667333536998   F   F   F
  1.5873575352163196 -0.6628704536719999  4.3151681183353601   F   F   F
  0.9884434479041699  3.2618927771017603  2.2320193319967401   F   F   F
  0.0793393242466500  9.7573327349406611  6.4406854679758796   T   T   T
  5.2834847913431089  0.6923533963579201  8.5684584335242207   T   T   T
  5.3260739269937103  5.8180302331574003  2.2097667353720603   F   F   F
  7.6720172900531400 -0.5762221710815800  8.5790521665443791   T   T   T
  0.9208959104599199  0.6747199091916599  2.2585246231964997   F   F   F
  5.3662392459395090  0.6882510267170003  2.1560981193743798   F   F   F
  0.1627947322803900  1.9858306886003199  6.4149197450666593   T   T   T
  3.7893428024765399 -1.9102393397676998  4.3424106188118197   F   F   F
  3.1880853069201889 -0.5744206986609198  8.5773187277605789   T   T   T
  0.8960763611325600  5.8530042520576000  8.6295611003061197   T   T   T
  5.3625203833366797  3.1866292635733400  8.5295673759574200   T   T   T
  5.3698974151098602 -1.8067069938857201  8.5618070206414796   T   T   T
  4.6202815586577604 -0.5533942836648601  6.4835171230533790   T   T   T
  8.4568206514772690 -1.8818781540824994 10.6535103215206810   T   T   T
  1.6521027000339596  7.1819873651965001  4.2742535782082198   F   F   F
  3.7912744547100896  5.8979717600997406  4.1990102978886403   F   F   F
  3.1871422114088399  1.9275808557172001  8.5941356816210401   T   T   T
  3.8438924265475194  0.7504171069715401  4.2273653455880993   F   F   F
  3.0330839990696399  7.1975964362216001  8.6373168384942005   T   T   T
  1.6581680251920901  4.6292687508561601  4.2740832305989800   F   F   F
  8.4502500804850484 -4.5578746338462199  4.3789318155940000   F   F   F
  3.0699055733551197  1.9786570578329603  2.1931312883990399   F   F   F
  1.6612038669909601  1.9427826497087797  4.2073830777046997   F   F   F
  8.3338516406060990 -4.3986228782444403 10.6433752627497995   T   T   T
  0.9147212472546000  8.4393838875694787  2.2862811138371599   F   F   F
  6.9231651748094691 -1.8586452663884998  6.4667059745194404   T   T   T
  1.5453708775964099  4.5507089342447591 10.6406406252431402   T   T   T
  1.5765582905982898  7.1001000853249199 10.6189533093862192   T   T   T
  8.3923288592565601  3.3489450821713596  4.2310546945894005   F   F   F
  2.2867382084553896  3.2914117242043797  6.3902114781105199   T   T   T
  8.4129792626638800  3.2462718274283797 10.7377718050284194   T   T   T
  3.1409427857448593  7.1305459869373404  2.2729584031380199   F   F   F
  1.6209792639375298  2.0326288663728200 10.7191213158944407   T   T   T
  7.6402281205759497  4.5523980332700198  8.6096109413091586   T   T   T
  6.2264964365041493  4.5345721194653787  4.2304181658555997   F   F   F
  7.0006974970420792  5.8419946469979802  6.4231424931983794   T   T   T
  0.8696506256540100  3.3173912430920400  8.6158818517127393   T   T   T
  6.9130884580582501  3.3299138803893400  6.3879264136040392   T   T   T
  7.5966801129809998 -0.6305575224173000  2.0734970939818598   F   F   F
  6.2144853187930194 -3.1411020678676196 10.7279185412714195   T   T   T
  3.7920855769931698  3.2257516855715398 10.6742318051122407   T   T   T
  8.4164894230572003  0.7786519783995205  4.2946841770678805   F   F   F
  0.1526382472259700  4.4715497428279800  6.5133440093674402   T   T   T
  7.6667828831315088  4.5701741828733411  2.1686339270022801   F   F   F
  8.4669406025166900  0.6112597468472196 10.6955015383841996   T   T   T
  4.6348213388336097  1.9704025264975402  6.4412129713130399   T   T   T
  3.8291414489639100  0.7311860143097199 10.6228518029870997   T   T   T
