Pt Pd Ni Co Fe 
 1.0000000000000000
     8.9645670000000006   -5.0970750000000002   -0.0554420000000000
     0.0644260000000000   10.3118449999999999    0.0416760000000000
    -0.0230490000000000    0.0365270000000000   22.9434980000000017
 Pt  Pd  Ni  Co  Fe 
  15  16  18  14  17
Selective dynamics
Cartesian
  5.3870828187918800  5.9518448315948005  2.1903580643572802   F   F   F
  8.5432018499779705 -1.8085928689790502 10.7184233935797018   T   T   T
  6.1918069030291800 -3.1303330868407202 10.8089858187726016   T   T   T
  0.0789364782502100  2.0076833193902899  6.5304497312746603   T   T   T
  5.5433551090645299  5.8244657734979999  8.5450491694438195   T   T   T
  2.4954276263880599  3.2869854971553396  6.4306155041087205   T   T   T
  3.1108389734638497  4.5765727658316395  2.2200361440076199   F   F   F
  5.4736043491441704  3.2765891183954396  2.1412797793182201   F   F   F
  8.5056149611624914 -4.4640620019548596 10.7811454605137023   T   T   T
  3.2292239823774005  7.1314359131088496  8.6320829699121209   T   T   T
  1.7240972492627002  2.0090247608398597  4.2132858029558804   F   F   F
  8.3948903863178916  3.2125248473095698  4.2107817997867807   F   F   F
  8.3363933556863898 -4.4341334078142900  4.2143548522103407   F   F   F
  0.8807432012949901  8.3071561544120591  8.5228433636152605   T   T   T
  0.9523349246617999  0.6382825920238799  8.5548349487640820   T   T   T
  8.4278005624076613  3.2144416222815595 10.7470173286630803   T   T   T
  5.3198535968514600  0.7027058501848499  2.1030956998902401   F   F   F
  3.2672555295813202  1.9227312149879801  8.5130576611973208   T   T   T
  1.7207592297195702  6.9878931190807405 10.8749085800550223   T   T   T
  3.9164230907245603 -1.8290507517748700 10.8310787546446807   T   T   T
  8.4049067444106988 -1.7706763441735101  4.3305708301336807   F   F   F
  6.1190469392915103  4.5092555081603596 10.8347712736925796   T   T   T
  6.1027964217414796 -0.5341592115453601  4.3462863305578407   F   F   F
  4.7867239185980202  7.1748708533675796  6.4639558594977196   T   T   T
  2.3799850073207902  5.8820909525045595  6.4506042255109808   T   T   T
  6.1201289624886712  1.8458926940665097 10.6945052270963004   T   T   T
  5.5311879273553801  3.1822453158453303  8.4480489060867203   T   T   T
  7.6388748138537608 -3.0928996619441702  2.0820915662532800   F   F   F
  3.8907452164992300 -1.9529003018489701  4.2754445050562202   F   F   F
  1.7044892512269501 -0.6570281212761000  4.2506117364040605   F   F   F
  7.6604480056419799 -0.4703623935913703  2.1224154197492004   F   F   F
  3.2504390879490606 -0.6279179220164200  8.4686255028454802   T   T   T
  0.9436131066630500  3.2758924776550398  2.1555366363757802   F   F   F
  8.4418073235208002  0.6669481360286701 10.5429146757734813   T   T   T
  4.7629686732418799  4.5188971811904191  6.3726627065183612   T   T   T
  6.1169048187337811  4.5605297816928605  4.3095715048250405   F   F   F
  3.9000825506956098  5.8301186427116996  4.3561074636363006   F   F   F
  8.4479339068853321  0.7504322492784800  4.3213217414425804   F   F   F
  3.9227498780368601  5.7138090458085200 10.6844338797701219   T   T   T
  1.6820086118226902  7.0628998684053306  4.3576128834506207   F   F   F
  0.1859874482193500  9.6586843840358192  6.4614639206202202   T   T   T
  3.1879714601795301  4.5332539362397997  8.5942252390515801   T   T   T
  6.0966042464075896 -3.1676756101544696  4.2979834548116607   F   F   F
  3.1206443418142205  7.2933173037391104  2.1258434527795602   F   F   F
  1.7496185475314501 -0.5871607326549001 10.6352533186608600   T   T   T
  0.1312743017639000  7.0899897428572203  6.4403558620379204   T   T   T
  0.9476342752742800  0.6020212442032500  2.0803049053747200   F   F   F
  2.4384967188805700  8.5025155406628894  6.4839138731082997   T   T   T
  2.4785899916725200  0.6542710430719096  6.3810043826183600   T   T   T
  3.9110449744960003  0.7808161282998097  4.2608044967819607   F   F   F
  4.5970089347445109 -0.4657497951499502  6.4458913462332212   T   T   T
  0.0971010041758000  4.6172039475757600  6.5492924690750005   T   T   T
  1.8506775866175900  1.9277466116585802 10.6555993196557406   T   T   T
  7.7145911200538899  4.5550396168210705  8.4486128554995403   T   T   T
  0.9319554766355501  3.3285995515516005  8.6123961396128603   T   T   T
  6.9696122987759503  5.7965906046857407  6.4173961992315007   T   T   T
  3.9038900121873206  0.5906240622068194 10.5274046266662005   T   T   T
  1.7712627034798003  4.4950543191898005 10.5571077245782803   T   T   T
  6.1993090704452110 -0.6180176546133700 10.5151007725916603   T   T   T
  1.6838353074473402  4.6500639295675796  4.3384246163743603   F   F   F
  4.8064406645427802  1.9588450505250399  6.2543043103645610   T   T   T
  0.8935752690511500  5.7206143348453100  8.5896214266083799   T   T   T
  7.6898737448784313  1.8433438236319899  8.4451356716660211   T   T   T
  6.9852826737863714  3.3669042901819299  6.3998402790213005   T   T   T
  6.1475578831355504  1.9961974845924599  4.2959753701033803   F   F   F
  6.9772993248244095  0.7699423399183098  6.4477683229983409   T   T   T
  5.4536313747283600  0.5459614432975102  8.4816391527076416   T   T   T
  3.7907240307762904  3.2561487903460096 10.6645750094280611   T   T   T
  6.8426326315328510 -1.7455948665110903  6.4826651362795005   T   T   T
  7.7419376633189003  2.0091791796972998  2.0305414884455204   F   F   F
  0.9495897264283101  5.8730926849553207  2.2589322638409404   F   F   F
  3.9220389167086398  3.3200706070967394  4.2947413434796404   F   F   F
  7.7411760742348701 -0.5838816012120598  8.5791200164893819   T   T   T
  5.4477977809454012 -1.8518625024773903  8.6043137287918015   T   T   T
  5.3476260759139098 -1.8655597480013597  2.1358807246250202   F   F   F
  0.9082608755440802  8.3550907069620202  2.1285184107234403   F   F   F
  3.0772893685651601 -0.5668594718032401  2.0913831529290401   F   F   F
  7.6462264899756907 -3.1790704230666602  8.6179029745521003   T   T   T
  7.7483230520549302  4.6192245030598604  2.0849841662146202   F   F   F
  3.0990653512511206  1.9524236310853897  2.0779178670889604   F   F   F
