Pt Pd Ni Co Fe 
 1.0000000000000000
     8.9564489999999992   -5.1570619999999998   -0.0271120000000000
     0.0040050000000000   10.3273039999999998    0.0160500000000000
    -0.0007110000000000    0.0043940000000000   22.9221719999999998
 Pt  Pd  Ni  Co  Fe 
  14  14  18  17  17
Selective dynamics
Cartesian
  3.8554014625406090 -1.9061718843749997 10.6986574313066587   T   T   T
  0.1060783487143200  7.1797746139125396  6.4210441709464998   T   T   T
  6.7932824299803904  0.6858458103243997  6.4397180709609403   T   T   T
  0.9384395849630999  0.6932038156861200  8.6179186452672010   T   T   T
  6.0324469921946688  1.9833822031909598 10.7626650252697811   T   T   T
  5.3693294947036199 -1.9282660622261796  2.1660517766565799   F   F   F
  3.0761149326713095  4.4748303736590795  8.6017903549886601   T   T   T
  6.2236012125281395 -0.6300394452165398 10.7109670034413806   T   T   T
  4.6846238194664105  7.2134128904867199  6.5364035788104990   T   T   T
  3.0932895416499897 -0.5624341614634399  2.2287870936206602   F   F   F
  7.6076821421558103 -3.1002627960984999  8.4861553094396385   T   T   T
  2.3759962108370094  8.4848552241192792  6.4690489143594601   T   T   T
  2.4139843143793196  0.7968753087011801  6.3657653462246602   T   T   T
  3.8809372408981195  3.3465316861107799  4.2494234849108601   F   F   F
  7.6712127001193702 -3.2311567095729394  2.2168095083451198   F   F   F
  6.2138039714808295  4.5996113091902604 10.9382240349336399   T   T   T
  5.4006020397697503  3.2841272871212004  2.1274969764408600   F   F   F
  7.6488536375980187  1.9747082015441806  2.1334775190525801   F   F   F
  8.4511381616173793 -1.8565402960131596  4.3013317295692000   F   F   F
  7.6283498332293300  2.0084122910693409  8.6325711464230395   T   T   T
  5.3823590705803488  5.8130316163175797  8.6929799607447595   T   T   T
  6.0927736364864096 -3.2870185415741799  4.3743477350891595   F   F   F
  2.3675061423408299  5.8242732256554204  6.3931977558420794   T   T   T
  1.5865187676263999 -0.5524179738352799 10.8903559365579596   T   T   T
  4.7301985063359897  4.5306565406380193  6.4092564633684397   T   T   T
  3.7457952867743396  5.7897300293610394 10.9159931557499608   T   T   T
  6.0917418536803192 -0.5683981391728999  4.2754380865164201   F   F   F
  0.9559215529310700  5.8569386235745995  2.1763371181949402   F   F   F
  6.1556298992491492  1.9978116932937409  4.2542864562780798   F   F   F
  0.9157187286639000  8.4496657245788196  8.6508849401308989   T   T   T
  3.1303599903834294  4.6015094344370002  2.1420667333536998   F   F   F
  1.5873575352163196 -0.6628704536719999  4.3151681183353601   F   F   F
  0.9884434479041699  3.2618927771017603  2.2320193319967401   F   F   F
  0.0881404550287200  9.7454104944845206  6.4449016041865601   T   T   T
  5.2969577007237305  0.6974604904361797  8.5476401455677209   T   T   T
  5.3260739269937103  5.8180302331574003  2.2097667353720603   F   F   F
  7.6690040445579584 -0.5742527228562199  8.5598159746415803   T   T   T
  0.9208959104599199  0.6747199091916599  2.2585246231964997   F   F   F
  5.3662392459395090  0.6882510267170003  2.1560981193743798   F   F   F
  0.1633693301577000  1.9938170416914600  6.4078415718432602   T   T   T
  3.7893428024765399 -1.9102393397676998  4.3424106188118197   F   F   F
  3.1774266159362097 -0.5832219849021998  8.5891429931184202   T   T   T
  0.9037435487773500  5.8502633682825005  8.6094538017496003   T   T   T
  5.3733403092299392  3.2019492343163605  8.5275800931759189   T   T   T
  5.3709569394001200 -1.8028419706075800  8.5665251733447789   T   T   T
  4.6163255106482097 -0.5519904257390401  6.4721274012385805   T   T   T
  8.4695262626736891 -1.9064393349690198 10.5970526252486401   T   T   T
  1.6521027000339596  7.1819873651965001  4.2742535782082198   F   F   F
  3.7912744547100896  5.8979717600997406  4.1990102978886403   F   F   F
  3.1991188698656998  1.9307082560837399  8.5806656629674993   T   T   T
  3.8438924265475194  0.7504171069715401  4.2273653455880993   F   F   F
  3.0449954835067499  7.1903981710890195  8.6463484902493590   T   T   T
  1.6581680251920901  4.6292687508561601  4.2740832305989800   F   F   F
  8.4502500804850484 -4.5578746338462199  4.3789318155940000   F   F   F
  3.0699055733551197  1.9786570578329603  2.1931312883990399   F   F   F
  1.6612038669909601  1.9427826497087797  4.2073830777046997   F   F   F
  8.3178438836693385 -4.3406582801013389 10.6402152323920589   T   T   T
  0.9147212472546000  8.4393838875694787  2.2862811138371599   F   F   F
  6.9041513400218095 -1.8464967783948401  6.4302001915754596   T   T   T
  1.5117184192980597  4.5885356938867403 10.6299686551358601   T   T   T
  1.5781514374796399  7.1178167540713195 10.6159778675470804   T   T   T
  8.3923288592565601  3.3489450821713596  4.2310546945894005   F   F   F
  2.2931367108237000  3.2930367019594602  6.3954254720331400   T   T   T
  8.4234689498826878  3.2399416378240398 10.7375239028104996   T   T   T
  3.1409427857448593  7.1305459869373404  2.2729584031380199   F   F   F
  1.6592187599655297  2.0459352702490801 10.6891560055527002   T   T   T
  7.6398518797298989  4.5740937613613202  8.6233698956031208   T   T   T
  6.2264964365041493  4.5345721194653787  4.2304181658555997   F   F   F
  7.0146090713654097  5.8277615266943803  6.4155912608887595   T   T   T
  0.8727114592849500  3.3100330286652597  8.5816993169966800   T   T   T
  6.9197330067179399  3.3367448298018600  6.3931727340265398   T   T   T
  7.5966801129809998 -0.6305575224173000  2.0734970939818598   F   F   F
  6.2135667128832290 -3.1362512427739397 10.7367796650680809   T   T   T
  3.7936550008367997  3.2035404937197391 10.6710966792284196   T   T   T
  8.4164894230572003  0.7786519783995205  4.2946841770678805   F   F   F
  0.1458115233311700  4.4835152314991200  6.4992722439547794   T   T   T
  7.6667828831315088  4.5701741828733411  2.1686339270022801   F   F   F
  8.4586812221510090  0.6015487410149195 10.6825557733584198   T   T   T
  4.6213948051873190  1.9912434673730603  6.4092061225164993   T   T   T
  3.8551314988535399  0.6926934967719597 10.6014865523877599   T   T   T
