Pt Pd Ni Co Fe 
 1.0000000000000000
     8.9787920000000003   -5.1385339999999999   -0.0093560000000000
     0.0222510000000000   10.3219250000000002   -0.0044850000000000
     0.0100720000000000   -0.0211110000000000   22.9158259999999991
 Pt  Pd  Ni  Co  Fe 
  16  13  19  18  14
Selective dynamics
Cartesian
  3.1631507702896799 -0.7369445356413499  8.5636253740100994   T   T   T
  3.0613504022932001  4.6330327508828004  8.6934102421316002   T   T   T
  5.3372877350185002  5.9434813926948307  2.1791862312513199   F   F   F
  0.8292418705862501  0.6858200490268801  8.6278104411478704   T   T   T
  1.7219911981660601  7.0751749090594505  4.2289121402941996   F   F   F
  1.7244096329574901 -0.5143786820993000  4.3782869323255502   F   F   F
  5.4550960968843505  0.5467126120798498  8.5300279381295496   T   T   T
  2.4300867547446301  5.8891697475185802  6.4435046207609705   T   T   T
  8.3989128789164997 -1.8868019131382399  4.3369656515561399   F   F   F
  0.9688650814886399  8.4337636250947909  2.0894744533008600   F   F   F
  1.7649013186481302  7.0887163286478003 10.7463852339053503   T   T   T
  8.3773191739408102 -1.9024979337367798 10.6536142518658288   T   T   T
  7.6758138994918506  4.6200519618077900  2.1505394637656101   F   F   F
  0.2119391160998500  9.7176363865886799  6.5036112372298698   T   T   T
  4.6480438763884298  4.5220314499197904  6.4265143539559091   T   T   T
  3.2453349552010100 -0.5314909634037700  2.1547785200247698   F   F   F
  0.1244493282563800  7.0238757508559502  6.4668306863863991   T   T   T
  6.8346977122463999 -1.7821221757482797  6.5061020278948805   T   T   T
  2.3246399123863601  3.2138004017427404  6.3774828672209596   T   T   T
  8.3843604063642285  3.2815850078319109  4.3302001303389899   F   F   F
  3.1390378207391900  1.9579466778613202  8.5907880758785300   T   T   T
  8.3616132022556204  3.3270882740015710 10.8431900003244799   T   T   T
  7.6227324230839200 -0.5350896981707797  2.2199379603718796   F   F   F
  5.4424945744267212  3.2779390938384196  8.6283430975966802   T   T   T
  5.4382190953263914  5.9434220177482997  8.6300240412274505   T   T   T
  6.1627263706206401  4.5891732348985403  4.3116538746887603   F   F   F
  7.6798317806136502  1.8930495257067703  8.5729737252439300   T   T   T
  6.9484497795563405  5.9116329875356604  6.4360023007163392   T   T   T
  3.8560164411592406  3.2159472744661106  4.2542465468787398   F   F   F
  7.6670777158788592  4.5721613645064414  8.5613265971922594   T   T   T
  0.1631507578135900  1.9930274227211899  6.4095799276081094   T   T   T
  6.1654137533889903  1.8993938251665110  4.3126755571227893   F   F   F
  3.1288933299440500  2.0286337881834302  2.1485921076319698   F   F   F
  3.8972849599294306  0.6916144453363502 10.7310205713495499   T   T   T
  6.1056819043437596  1.9703123086753607 10.7707185763574387   T   T   T
  0.9479736934168801  5.7539872856298198  2.2229864793322798   F   F   F
  8.3378703819707400 -4.4619029075060599 10.6970678943282600   T   T   T
  7.6029622334597402  1.9888524210135303  2.1857771310301199   F   F   F
  5.3938803509452597 -1.8589501865470197  2.2148282273850199   F   F   F
  0.8818006212362099  5.7695649965836893  8.6409961157012098   T   T   T
  2.4504121963522700  0.6675104843227903  6.4026017532639097   T   T   T
  4.6102045563501601  7.2075433413479004  6.3848371892801996   T   T   T
  6.1282709760514704 -3.1845637137115999 10.6494318924482485   T   T   T
  8.3686165655279616  0.6514482851285405 10.7172094226509600   T   T   T
  5.3945053536076699  3.2162744965177108  2.1579151108657899   F   F   F
  4.7129799323915904  1.8848732973290603  6.3705305475748899   T   T   T
  0.8968121872041800  0.8176658750786000  2.1937165034335000   F   F   F
  8.4228321235846799 -4.3901963419970098  4.3156967431662601   F   F   F
  3.9406876771088499  3.2154713626990601 10.7515998829973896   T   T   T
  6.8043752987218902  0.7374292022705000  6.3431129018283494   T   T   T
  6.0934605583035291 -0.5564596527536296 10.6704882139149291   T   T   T
  5.4039051186787601 -1.9229924546078301  8.5820711347299792   T   T   T
  6.1333705517731492  4.5917766630147803 10.6861913417879695   T   T   T
  7.6220316116939202 -3.1136917200101495  8.5684966183372993   T   T   T
  1.6134839044131402  1.9979325539546697  4.2514379170770802   F   F   F
  3.1618381456090301  7.1356537877499395  8.5510449153364103   T   T   T
  1.7088436539624101  4.4370759947515506 10.7338521127518494   T   T   T
  2.4990103172877101  8.4213657076303399  6.4372796817778095   T   T   T
  7.6922984901850304 -0.6647902709937995  8.5793878265952497   T   T   T
  6.0658769865626896 -0.6223022271384696  4.2819153613005705   F   F   F
  1.6898538658340503  1.9243939728597801 10.7387871980458698   T   T   T
  0.9595842249556500  3.1978086636830199  2.1523024908612300   F   F   F
  5.4440889910585204  0.7936000579682300  2.2519617642376200   F   F   F
  6.8596816095386606  3.1969465001621695  6.4514670039680801   T   T   T
  1.6791027123013500  4.4816195442286206  4.2373647603219302   F   F   F
  3.9435925616849303  5.9177594686170805  4.2823214530728695   F   F   F
  6.1665792432630511 -3.1429049410442298  4.3616803968373299   F   F   F
  8.3451917617132008  0.6900651120962502  4.3264987074869001   F   F   F
  1.6293806056308602 -0.5390573813826600 10.7689197525096585   T   T   T
  3.1151989007517602  4.4977843761401193  2.1289823831296797   F   F   F
  3.1902740576796602  7.1966311137603798  2.0902851233782198   F   F   F
  4.5895706930415905 -0.5996050714786900  6.3821250321657894   T   T   T
  0.8152836468779000  3.3230019203983199  8.5634107907885806   T   T   T
  3.9812700776444299  0.7245642553148705  4.2940293809026295   F   F   F
  7.6989323742285105 -3.1720574853553498  2.1681879173235497   F   F   F
  0.1235856130283500  4.5591205261613901  6.5160134299207098   T   T   T
  4.0161242677612403 -1.9295502410908800  4.2625220104478796   F   F   F
  3.9526528178366802 -1.8436766948439303 10.7233006896489798   T   T   T
  0.9459124007442201  8.3801949377949700  8.5927385716886793   T   T   T
  3.9937067170357499  5.7833216833782100 10.7005784600295897   T   T   T
