Pt Pd Ni Co Fe 
 1.0000000000000000
     8.9674209999999999   -5.1014980000000003   -0.0417960000000000
     0.0607130000000000   10.3143170000000008    0.0324100000000000
    -0.0101430000000000    0.0251350000000000   22.9479520000000008
 Pt  Pd  Ni  Co  Fe 
  16  16  17  17  14
Selective dynamics
Cartesian
  4.0284555656300496 -1.8424350387328101  4.2936683678399001   F   F   F
  3.9527123238188202 -1.9769862956333202 10.8196084554105596   T   T   T
  1.6824849711065202  2.0751458776177603 10.8158628375478401   T   T   T
  0.9294210778291201  5.8758309441004704  8.4838853763440607   T   T   T
  8.3507656616794410  3.3124125679888405 10.8152465558620001   T   T   T
  3.1185916397823403 -0.6545641835642602  8.5709442351460403   T   T   T
  3.2802238921456297  7.1735324873632909  2.1902359007509999   F   F   F
  6.8350870863333002  3.2198757271996499  6.3502248427008006   T   T   T
  1.6575393604771800  2.1031493612146401  4.1950909539355399   F   F   F
  4.7124457595950995 -0.5994301569886400  6.4501337008395607   T   T   T
  3.2526545530511299  4.4349708494899405  2.2158658700397402   F   F   F
  7.5980331885796391 -3.1235183767655901  2.0674907016469199   F   F   F
  8.3530615106740989  0.7303468206136704 10.7499467720094408   T   T   T
  8.3115541959002304 -1.8196519020319997 10.7275374422502008   T   T   T
  5.5148922446449307  0.6992254565187701  8.5989539321377997   T   T   T
  0.2604729562087500  9.6311891891402901  6.4560990957035003   T   T   T
  0.8911854425509601  0.7721419740280701  8.6048707103042403   T   T   T
  3.1902232205309797  4.5857348253225103  8.5339651909356196   T   T   T
  8.3001918040758209 -4.4535587580797200  4.2024242376607601   F   F   F
  6.7886481683526299  5.9499041266519015  6.4306699230899804   T   T   T
  1.6484841923872902 -0.6623140753747701 10.9052700101013205   T   T   T
  1.6727192849411301 -0.5728493003180800  4.2140813762449598   F   F   F
  7.6421911006822798  4.6522696211285801  8.6044647071208988   T   T   T
  5.4158292800417298  3.3270483040535699  8.5875153191163207   T   T   T
  7.5894853884197104 -0.5101626743790598  2.2127306223028200   F   F   F
  4.0178656142457996  0.8028478270733999  4.2981152379914800   F   F   F
  3.9575320988733593  3.3942452813050101 10.9051461630243800   T   T   T
  3.9660259936143096  0.7223978593107100 10.8992612567969598   T   T   T
  0.1678551674287800  2.1067717256091001  6.4558837732597194   T   T   T
  1.6628506147300199  7.1463502474333112  4.3753436063468003   F   F   F
  0.8931688287455399  5.8297374741992707  2.2227248001540003   F   F   F
  8.2869578961817698 -4.4138840270224504 10.9007096069448206   T   T   T
  4.5726787938861202  7.1141427668722805  6.5109046983756809   T   T   T
  6.1474694940183703 -3.1249095376440001  4.2399973822395998   F   F   F
  6.9250549720942605 -1.8002139098926204  6.4287539110327003   T   T   T
  0.9306385556903299  0.6731378202530500  2.0372361471813600   F   F   F
  3.1285030337104294  2.0064724387282999  8.5068351188553599   T   T   T
  3.2073158500712102  7.1193063168359192  8.5833718623519406   T   T   T
  3.1918175428056395 -0.5208598463656400  2.0961608010978803   F   F   F
  6.1009002709741909 -3.1852599562125503 10.6761449473149206   T   T   T
  1.6659574917547599  4.6333287800571599 10.7528398447520193   T   T   T
  2.4427636946842397  5.8118441587973102  6.3879516465774806   T   T   T
  2.4294689169619303  8.3363128268496709  6.5267054932932798   T   T   T
  1.7370897054517400  7.0677730209372802 10.7020475130377797   T   T   T
  4.0361485249533500  3.3204761527429598  4.3010967390088801   F   F   F
  3.1415898826463495  1.9269449209921705  2.1250687144858200   F   F   F
  6.1375217916975693 -0.5964092047121597 10.7257270074311002   T   T   T
  4.5814340629117307  4.5908294210801497  6.3332172083979801   T   T   T
  7.6491089252840894  2.1354110730519098  2.1866903189069999   F   F   F
  2.4880189746416299  3.2962912392398303  6.3654907928651800   T   T   T
  0.1648417527398300  4.6533286104325207  6.3742414298467995   T   T   T
  6.1180805727889096  4.6576018328632802 10.7165123924445798   T   T   T
  5.3994221295742006  5.9784030259890004  8.6776882604962005   T   T   T
  5.3788437067923400 -1.7677079675184204  2.0849515216360399   F   F   F
  7.7471688691012792 -0.6165468364447597  8.4219674749589597   T   T   T
  5.4966166840644899  3.2370777690465697  2.1570100802291803   F   F   F
  8.3225940363898303  3.2359568187135501  4.1931240151404001   F   F   F
  0.8002155748996299  8.5093730748971197  2.1871078873244003   F   F   F
  3.9911361663018701  5.8402186231923299  4.3195969426092402   F   F   F
  6.2005581273662207  2.0835775340475804  4.1660448789768596   F   F   F
  1.6858347970057999  4.6144003526486701  4.3667504090568805   F   F   F
  4.0015474048184103  5.8874368985085708 10.6589431068272198   T   T   T
  7.7185203618813194  1.9908842746985507  8.4990092223230409   T   T   T
  8.3950433173004715  0.7783910615432897  4.3239354610956804   F   F   F
  6.1115291157488691  4.5780337078787801  4.2484466087747803   F   F   F
  4.5427501963172698  2.0797690852184600  6.4569601256677398   T   T   T
  6.9514040168411499  0.6856627877307300  6.4417723940871996   T   T   T
  0.9474452781353200  3.1973694537630801  2.0442033043096801   F   F   F
  6.1683142841188898  2.0562462453463803 10.7427334795995399   T   T   T
  5.3407797687023093  0.7082166074155800  2.1419765822855399   F   F   F
  0.9537226624988999  3.3162822934715805  8.6014985775598607   T   T   T
  7.7212296936724698  4.5635070026837399  2.1376062867057799   F   F   F
  7.5327511697455600 -3.0279185723602700  8.5901386464882812   T   T   T
  0.9409858824261300  8.4070619290520820  8.6553997634704007   T   T   T
  2.4458290947676598  0.7684053747395698  6.4839720277935404   T   T   T
  8.3458548342141192 -1.7799087242168503  4.3036154357693199   F   F   F
  5.4550720733919409  5.8041334138364897  2.1824421521002200   F   F   F
  6.2159801102689505 -0.5417943876518303  4.3751526608642202   F   F   F
  0.1648541587429700  7.0902186763074502  6.4073384243614599   T   T   T
  5.3954667786385802 -1.9469415394625400  8.5979568817007994   T   T   T
