Pt Pd Ni Co Fe 
 1.0000000000000000
     8.9787920000000003   -5.1385339999999999   -0.0093560000000000
     0.0222510000000000   10.3219250000000002   -0.0044850000000000
     0.0100720000000000   -0.0211110000000000   22.9158259999999991
 Pt  Pd  Ni  Co  Fe 
  16  13  19  18  14
Selective dynamics
Cartesian
  3.1655242177818801 -0.7412296642436197  8.5605926293199186   T   T   T
  3.0712299735165196  4.6255211927272297  8.6862416150492194   T   T   T
  5.3372877350185002  5.9434813926948307  2.1791862312513199   F   F   F
  0.8165807116296000  0.7010227206236800  8.6411313171271207   T   T   T
  1.7219911981660601  7.0751749090594505  4.2289121402941996   F   F   F
  1.7244096329574901 -0.5143786820993000  4.3782869323255502   F   F   F
  5.4484038963176094  0.5598466422811400  8.5321641291887094   T   T   T
  2.4176281784618503  5.8865151699565299  6.4341618563515706   T   T   T
  8.3989128789164997 -1.8868019131382399  4.3369656515561399   F   F   F
  0.9688650814886399  8.4337636250947909  2.0894744533008600   F   F   F
  1.7530071604773301  7.0996755027826000 10.7449631374297496   T   T   T
  8.3833406485507389 -1.9175732212455598 10.6562934627604609   T   T   T
  7.6758138994918506  4.6200519618077900  2.1505394637656101   F   F   F
  0.2130143255006100  9.7020440196664790  6.4808373314048691   T   T   T
  4.6601244147869298  4.5190656641516203  6.4125697576576295   T   T   T
  3.2453349552010100 -0.5314909634037700  2.1547785200247698   F   F   F
  0.1242232317351000  7.0405623209375099  6.4763640919922398   T   T   T
  6.8407363560625196 -1.7921464495445600  6.4951090559751599   T   T   T
  2.3261347379010702  3.2112916776512903  6.3679215391333095   T   T   T
  8.3843604063642285  3.2815850078319109  4.3302001303389899   F   F   F
  3.1425101604360699  1.9597368775403903  8.5958942026825085   T   T   T
  8.3575511046396596  3.3319332307415901 10.8274210959417605   T   T   T
  7.6227324230839200 -0.5350896981707797  2.2199379603718796   F   F   F
  5.4454224773686501  3.2818437782724406  8.6306354077445100   T   T   T
  5.4437829927250103  5.9389617741015313  8.6258859245781689   T   T   T
  6.1627263706206401  4.5891732348985403  4.3116538746887603   F   F   F
  7.6764514914975797  1.8951913405146494  8.5651475064585991   T   T   T
  6.9428376646140002  5.9085220963587908  6.4245050692956607   T   T   T
  3.8560164411592406  3.2159472744661106  4.2542465468787398   F   F   F
  7.6693558988597896  4.5730059341115998  8.5642590427442489   T   T   T
  0.1624423982608500  1.9925235896914302  6.4033809513395701   T   T   T
  6.1654137533889903  1.8993938251665110  4.3126755571227893   F   F   F
  3.1288933299440500  2.0286337881834302  2.1485921076319698   F   F   F
  3.8857944776851596  0.7028389346960406 10.7240962075187607   T   T   T
  6.1245026213888805  1.9796172849445897 10.7689823806844593   T   T   T
  0.9479736934168801  5.7539872856298198  2.2229864793322798   F   F   F
  8.3530032797143203 -4.4799756822163799 10.6891483946974795   T   T   T
  7.6029622334597402  1.9888524210135303  2.1857771310301199   F   F   F
  5.3938803509452597 -1.8589501865470197  2.2148282273850199   F   F   F
  0.8807169968327001  5.7797769320843502  8.6384043024603994   T   T   T
  2.4343543044667606  0.6813696624158998  6.4035491441492001   T   T   T
  4.6284499875371301  7.1987118068052709  6.3832381231399289   T   T   T
  6.1336613964934603 -3.1931180965614998 10.6458008318920996   T   T   T
  8.3635810041308911  0.6711408058780299 10.7208835694601685   T   T   T
  5.3945053536076699  3.2162744965177108  2.1579151108657899   F   F   F
  4.7031771612506903  1.8975766494916197  6.3739911153376294   T   T   T
  0.8968121872041800  0.8176658750786000  2.1937165034335000   F   F   F
  8.4228321235846799 -4.3901963419970098  4.3156967431662601   F   F   F
  3.9453751676850102  3.2013560335172508 10.7480156695026494   T   T   T
  6.8089236102413695  0.7352141599691505  6.3471519514474490   T   T   T
  6.0974466734296797 -0.5441099772130299 10.6843122593389790   T   T   T
  5.4006932368392713 -1.9242276334758204  8.5726739017249702   T   T   T
  6.1498420234333491  4.5839058583219705 10.6809470933394302   T   T   T
  7.6335267123280603 -3.1337387437328594  8.5568815248224599   T   T   T
  1.6134839044131402  1.9979325539546697  4.2514379170770802   F   F   F
  3.1641192651665504  7.1439769220663800  8.5485446807881704   T   T   T
  1.7086281248945598  4.4396167474841803 10.7396764976141199   T   T   T
  2.4807227420169804  8.4218261830699106  6.4390730760132397   T   T   T
  7.6798309373583296 -0.6595788538759594  8.5664839951601088   T   T   T
  6.0658769865626896 -0.6223022271384696  4.2819153613005705   F   F   F
  1.6878238651892199  1.9150782527340702 10.7321564958414797   T   T   T
  0.9595842249556500  3.1978086636830199  2.1523024908612300   F   F   F
  5.4440889910585204  0.7936000579682300  2.2519617642376200   F   F   F
  6.8629065059987706  3.2033270793496897  6.4568684570852097   T   T   T
  1.6791027123013500  4.4816195442286206  4.2373647603219302   F   F   F
  3.9435925616849303  5.9177594686170805  4.2823214530728695   F   F   F
  6.1665792432630511 -3.1429049410442298  4.3616803968373299   F   F   F
  8.3451917617132008  0.6900651120962502  4.3264987074869001   F   F   F
  1.6231152787169800 -0.5510120055161400 10.7649561771739393   T   T   T
  3.1151989007517602  4.4977843761401193  2.1289823831296797   F   F   F
  3.1902740576796602  7.1966311137603798  2.0902851233782198   F   F   F
  4.5933748642791006 -0.6022574379331099  6.3839139787299599   T   T   T
  0.8268011923583900  3.2945686586324001  8.5554163235432501   T   T   T
  3.9812700776444299  0.7245642553148705  4.2940293809026295   F   F   F
  7.6989323742285105 -3.1720574853553498  2.1681879173235497   F   F   F
  0.1275984400751600  4.5503982475316596  6.5079419840730397   T   T   T
  4.0161242677612403 -1.9295502410908800  4.2625220104478796   F   F   F
  3.9301982742687804 -1.8416479784659299 10.7321380630412797   T   T   T
  0.9332784229059400  8.3949141827363398  8.5922024190182604   T   T   T
  3.9896749664567799  5.7860402713478205 10.6946976985059798   T   T   T
