Pt Pd Ni Co Fe 
 1.0000000000000000
     8.9376460000000009   -5.1802149999999996   -0.0567110000000000
     0.0080190000000000   10.3804099999999995    0.0354720000000000
    -0.0291720000000000    0.0284160000000000   22.9142790000000005
 Pt  Pd  Ni  Co  Fe 
  15  14  16  18  17
Selective dynamics
Cartesian
  8.3337268746521005 -4.4603555423417793  4.2339768847038197   F   F   F
  8.3289499190581608  3.3188325899907394 10.8004516544589695   T   T   T
  8.3099410731659411 -4.4806536174871701 10.7231238998973897   T   T   T
  7.5150046232724801 -3.1312375214939792  2.0980498511863401   F   F   F
  6.0286118908545019 -0.5332242564833901 10.7467721530941009   T   T   T
  3.0754595328558705 -0.5820503327077199  2.1562755907001199   F   F   F
  8.3599070136752403 -1.8871911994156598 10.8006294329496910   T   T   T
  0.9025147252929300  0.6570121889452500  8.4471595839196514   T   T   T
  3.9273453699899803 -1.8545485155058496  4.3268648994573997   F   F   F
  0.9134378446372401  3.3224824983912096  8.5852437508820305   T   T   T
  3.0430277203831406  7.1759493437525297  8.5283505523939098   T   T   T
  5.3136307867376198  3.3822459638261702  8.5661179263403895   T   T   T
  3.0972154659914999  4.5996237613363800  2.1633015101550299   F   F   F
  4.4870123198426111  1.9366338938582002  6.4895847123399895   T   T   T
  6.0464234651778703  1.9159320838844400  4.2336468130348299   F   F   F
  3.8200092680141098  3.3222409013672398  4.4021767363972204   F   F   F
  7.5809802524378602  1.9635981585721201  8.5927450426174410   T   T   T
  0.1538959655432600  4.5456162588611599  6.4248688282001902   T   T   T
  3.1286732139106999  7.1620609537549704  2.1560415944734999   F   F   F
  3.8022266909525304 -1.9272996841170198 10.7693459020085598   T   T   T
  8.3736474000602019  0.7193315527952797 10.8635083900371505   T   T   T
  6.8872826522328205  5.8726765112270192  6.4987307725833805   T   T   T
  0.2416229762896700  7.1998477292515499  6.5412643727690609   T   T   T
  3.1206311981968704  2.0113212636959203  2.1859074593928800   F   F   F
  8.3403830464390118  3.2959840666310591  4.2355448397718405   F   F   F
  7.5653767577320608  1.9814896606940708  2.0766831818404903   F   F   F
  1.6752585700066103  7.0852331542172298  4.3141000504033098   F   F   F
  4.6448186453289413  7.2131638578518000  6.4793209957368401   T   T   T
  6.7827900053760803  0.5980943175661302  6.4555600667157504   T   T   T
  1.7122704141926202  1.9869001422969601 10.7092914931269103   T   T   T
  0.8429652863222500  3.2863730311018498  2.2373418441625299   F   F   F
  0.8550881571027001  8.5107784425447406  2.1954772580292903   F   F   F
  6.0655185704414505 -3.2117407128786302 10.6452763720385803   T   T   T
  1.6222231826516704  7.1677113989660999 10.6842915277704300   T   T   T
  6.0644671755094004  4.6615249313744505  4.2731032725083500   F   F   F
  1.6104603492565601  2.0155014767399497  4.2743614646413901   F   F   F
  1.6460416933052502 -0.5758222858624099 10.6509358108315304   T   T   T
  8.3276161156057302  0.5908473487164200  4.2528420154919804   F   F   F
  3.8942093150119201  5.7940345027298301 10.6409966451824403   T   T   T
  3.1368990984216802 -0.5741888039401999  8.4848566643281096   T   T   T
  5.3808557733503495  5.8449328336539006  2.2188757205447498   F   F   F
  3.1304712677454707  4.6476854650161608  8.5164149884028202   T   T   T
  1.7296877666283801  4.5990885572790789 10.7203199707991601   T   T   T
  4.5449383211307497 -0.6091517128654100  6.4821864579711503   T   T   T
  0.8396330268446102  0.6684220169629300  2.1832717918296902   F   F   F
  5.2194861578123115  0.7076082567072500  8.6562203043356405   T   T   T
  3.1219571952133895  1.9861362713038502  8.6205329891463709   T   T   T
  2.3416542220099603  8.6181064502374394  6.4992291840420107   T   T   T
  0.1911660292690200  9.7600969509093485  6.4158167247387006   T   T   T
  5.9043606964536810  2.1117500568632095 10.7067778293216804   T   T   T
  7.4438013636452611 -0.7261010217196399  8.5706030388070698   T   T   T
  2.4919910696897301  5.7403791526417800  6.3651793139320407   T   T   T
  2.3145734672141804  0.6256130537990700  6.3190692247708302   T   T   T
  3.9947197799280403  5.8539135618287501  4.3385735311132603   F   F   F
  6.1661919151497706 -0.6532118325858697  4.1811007414913801   F   F   F
  1.6597606043087001 -0.5634314424072200  4.2860261932468697   F   F   F
  6.0948815868692003  4.6433665131487203 10.6299275841274401   T   T   T
  8.3103515294115518 -1.8278255804114898  4.2217286499977300   F   F   F
  5.4407113662266706  0.5646065408750003  2.1113094655619102   F   F   F
  0.8094628700080901  5.7946522599292507  2.2494773746334502   F   F   F
  6.0758083271593106 -3.2001473995073595  4.2338813288452402   F   F   F
  2.3440185677120504  3.3010647134654598  6.4940517466224703   T   T   T
  7.5739068543531509  4.6050211510105390  8.5789845671869394   T   T   T
  6.8546395052619316 -1.9239586898980798  6.3226899916176604   T   T   T
  3.8563337233254105  0.6571027791387798  4.2950415303689198   F   F   F
  1.5037864484755401  4.5139527300030107  4.2827992189484902   F   F   F
  0.8944477522633102  5.8309705671429297  8.7064831349358798   T   T   T
  3.7785212352573403  0.7174429991453801 10.5856397242752394   T   T   T
  0.2651745601460300  1.9872889221001597  6.3570812688152598   T   T   T
  5.3758568857964004 -1.8326344286098097  2.1546246160842801   F   F   F
  6.8784934651694707  3.3100700270350796  6.4155628658756703   T   T   T
  5.4194267541380698  5.9541022060376605  8.7041870267526011   T   T   T
  4.5572390881395002  4.6379412763799595  6.4136231693274297   T   T   T
  5.4105604284308404  3.3696859376349799  2.1574688794786501   F   F   F
  5.3693153227150301 -1.7813154320007099  8.5766162141597206   T   T   T
  7.5456081263647796  4.6318978636938999  2.1219130690947599   F   F   F
  0.8888626611543701  8.5447754439234984  8.6520953923570598   T   T   T
  7.5749996097086809 -3.1451918629728994  8.5793594774246493   T   T   T
  3.8076280460181002  3.3053206773017094 10.6254838940273704   T   T   T
  7.6477318939468413 -0.5608342282048002  2.1142275382097000   F   F   F
