Pt Pd Ni Co Fe 
 1.0000000000000000
     9.0348150000000000   -5.1878500000000001   -0.0082870000000000
    -0.0577960000000000   10.2815770000000004   -0.0342180000000000
    -0.0094090000000000   -0.0583070000000000   22.9315239999999996
 Pt  Pd  Ni  Co  Fe 
  17  17  16  16  14
Selective dynamics
Cartesian
  4.6045795314746298  7.0758991228171393  6.5010066767802606   T   T   T
  2.2725891951886803  8.3806859015593904  6.3836209510490196   T   T   T
  3.8239752783414902  5.8870920654534213  4.1796454859345005   F   F   F
  8.3859637510690703 -1.9815607092418397  4.2504054727682599   F   F   F
  6.1923194444598808  1.9631661099614899 10.7152699110148202   T   T   T
  5.3417601958567298 -1.8742766868847598  2.2315170744380901   F   F   F
  1.5629002245411101  7.1343606735868308 10.8612049971053697   T   T   T
  3.8592849704913101  0.6910565047345799 10.7810132047383096   T   T   T
  0.1564124497400400  4.4936714170823704  6.4600521798360298   T   T   T
  3.8303538491239797  3.2111309604918401  4.1806483240697005   F   F   F
  4.5896046960532102  4.3552470236727814  6.5204082018235106   T   T   T
  5.4043588651631893 -1.9810189837929797  8.7902153527912485   T   T   T
  7.7144308625757603  2.0553405409815801  2.1166878407740000   F   F   F
  6.9443346920394502  5.7156569800939510  6.5402596354656097   T   T   T
  0.9549652661722100  5.8279637339213304  2.0495320194363402   F   F   F
  8.5061127848411608 -4.5936905434795205  4.2084181779746697   F   F   F
  0.8228027809033901  0.7013869009404701  8.6054199271806091   T   T   T
  3.0130707060930204  1.8846078006032601  2.0489648081850600   F   F   F
  6.9233836612187600 -1.9280286268145195  6.5387296582277390   T   T   T
  3.8391219268938594  5.6668049016301802 10.8877914080668301   T   T   T
  7.6700937781329408 -0.6443774681683297  2.1284115150151899   F   F   F
  3.1370543234213000 -0.6426580318154997  8.6388892368980592   T   T   T
  3.8704313055416901  0.5406607942746700  4.2460580712174405   F   F   F
  6.9216128420407408  3.0624373197440695  6.4338528126077899   T   T   T
  0.9177643254735901  5.8321851955323210  8.6419108084497100   T   T   T
  8.4002501328315304  0.6999976181998903  4.3223185989599395   F   F   F
  2.3814251875923098  0.7221338394824799  6.4114774100197005   T   T   T
  8.5104387396704091 -4.5332755742484707 10.9629693627901990   T   T   T
  5.4135491881258497  5.8045102062469507  2.0249934280727899   F   F   F
  6.1836377157977802  4.4653066085956405  4.2197673472265400   F   F   F
  6.1966997483293502 -3.2014597976246999 11.0555032010031500   T   T   T
  2.3480969826456000  5.7697794592828000  6.4266275025284498   T   T   T
  5.3783086565193203  3.2087141688729601  2.0195530144979901   F   F   F
  7.6786635466394699 -0.6327489196703897  8.7219968668079098   T   T   T
  1.6495142719320199 -0.6720939292419901  4.2427020483958602   F   F   F
  0.9206866733889000  8.4574018685521004  2.0792267786469401   F   F   F
  8.4953478535721008  3.1963075534456000  4.2684233849435795   F   F   F
  8.3779391624882198  0.6286138579916107 10.8022847729398102   T   T   T
  5.3847502469268598  0.6350913278920304  2.1369248363284901   F   F   F
  3.0419857766422003  7.1774459294310002  2.0790778569808896   F   F   F
  7.7322861009001196  4.5563589669944609  1.9888086998149499   F   F   F
  6.8595125043443499  0.6194999987637004  6.4647863134211905   T   T   T
  8.4225224730212513  3.1604346715049005 10.6180512901785402   T   T   T
  3.8947391445540398 -1.9288468570065298  4.3320373152628395   F   F   F
  6.1469776693832205  1.8416134760028604  4.2500179884952596   F   F   F
  7.6097555659007297  4.4151482086675902  8.6799839413586497   T   T   T
  6.1211557056396195 -0.7005982898245897  4.4206661391918693   F   F   F
  0.8906570835045601  0.6256791597498300  2.0793729537431100   F   F   F
  0.1789262395458700  1.9225001808571101  6.4121623205307898   T   T   T
  8.4437476380661209 -1.9267762700333400 10.7497263666588694   T   T   T
  0.0692298378759700  7.1301778691386604  6.4593912905545903   T   T   T
  3.1239877744683899  4.5492304115447197  1.9659857730685597   F   F   F
  0.8885769102528900  3.2106242961704199  2.0994919287167799   F   F   F
  1.6466529626414996 -0.6534233009314500 10.6939151416682794   T   T   T
  3.2477295425908199  2.0445677188372602  8.5184306791369693   T   T   T
  1.6028032878885099  7.1660965421379306  4.2033323918114096   F   F   F
  5.3310302030691599  5.6478351779047813  8.7111309907291989   T   T   T
  1.6074005403529301  1.9284635342836900  4.2163495196929004   F   F   F
  6.1517634777166199 -0.6016265875607898 10.8020224257653492   T   T   T
  2.3377775886418499  3.1786126855649002  6.3812933030526597   T   T   T
  0.9765094927222500  3.2221508749846999  8.5600375449029702   T   T   T
  7.6644882862018893  1.9449446850658205  8.5791048740670703   T   T   T
  4.6828711964778300  1.7967132464485398  6.5086216722254902   T   T   T
  5.3978931643788499  0.7068269622418004  8.5184669307822496   T   T   T
  1.6124767784393501  4.4699709529254505  4.1552772139421403   F   F   F
  0.7291206183322101  8.3846968474651309  8.5418930142703697   T   T   T
  3.8483019054542997 -1.8814215912890002 10.9054953148082596   T   T   T
  4.7093175613003009 -0.6071703381583501  6.4612374042925991   T   T   T
  3.0884936185949003 -0.6639246783699999  2.1129912140466800   F   F   F
  7.7773238895991099 -3.2655852651236201  2.0687029635728997   F   F   F
  3.1496392087089098  7.0348391630405311  8.7591690661236488   T   T   T
  3.8505479401100797  3.1904224225080409 10.6488349346376410   T   T   T
  1.4827177481175602  4.4724319693809305 10.7069072936741208   T   T   T
  1.6528090971091001  2.0728694991101504 10.6384580100408090   T   T   T
  7.6271128392652496 -3.3195225940543507  8.7678607768164394   T   T   T
  3.1187166623454496  4.3506147422313495  8.6106761051454495   T   T   T
  6.1386309054624002 -3.1809642628565000  4.4083608787354303   F   F   F
  6.1850692500200601  4.5110641796362803 10.6439233102078799   T   T   T
  0.1018350128241400  9.5962570628600705  6.4220630482262697   T   T   T
  5.4468455797746813  3.1215969087409401  8.5656173684518997   T   T   T
