Pt Pd Ni Co Fe 
 1.0000000000000000
     8.9645670000000006   -5.0970750000000002   -0.0554420000000000
     0.0644260000000000   10.3118449999999999    0.0416760000000000
    -0.0230490000000000    0.0365270000000000   22.9434980000000017
 Pt  Pd  Ni  Co  Fe 
  15  16  18  14  17
Selective dynamics
Cartesian
  5.3870828187918800  5.9518448315948005  2.1903580643572802   F   F   F
  8.5246105293432493 -1.7754512276185501 10.7341661698461408   T   T   T
  6.1747850572567904 -3.0971573863964204 10.8179658650243411   T   T   T
  0.0749890142496600  2.0144448176826097  6.5364132476257204   T   T   T
  5.5332900545014203  5.8389641312785603  8.5570656616813601   T   T   T
  2.4744140706792002  3.3098430003120698  6.4301207943573200   T   T   T
  3.1108389734638497  4.5765727658316395  2.2200361440076199   F   F   F
  5.4736043491441704  3.2765891183954396  2.1412797793182201   F   F   F
  8.4869833468183913 -4.4281304826563810 10.7995276568392207   T   T   T
  3.2098510087405905  7.1528680310477304  8.6315806997920212   T   T   T
  1.7240972492627002  2.0090247608398597  4.2132858029558804   F   F   F
  8.3948903863178916  3.2125248473095698  4.2107817997867807   F   F   F
  8.3363933556863898 -4.4341334078142900  4.2143548522103407   F   F   F
  0.8724583732351101  8.3276016014989889  8.5082597468227004   T   T   T
  0.9415107051785201  0.6555110972108599  8.5591625110835210   T   T   T
  8.3982136809287908  3.2464915354013000 10.7350258928416196   T   T   T
  5.3198535968514600  0.7027058501848499  2.1030956998902401   F   F   F
  3.2552342571245205  1.9458922465774700  8.5197984728126404   T   T   T
  1.6984186704600599  7.0280284765667798 10.8715864759700001   T   T   T
  3.9017243965195103 -1.8024190792345802 10.8293332439584198   T   T   T
  8.4049067444106988 -1.7706763441735101  4.3305708301336807   F   F   F
  6.0952948893934806  4.5466838939362404 10.8497539578948796   T   T   T
  6.1027964217414796 -0.5341592115453601  4.3462863305578407   F   F   F
  4.7708051220334813  7.1853142271171988  6.4616052716175609   T   T   T
  2.3588403311196799  5.9036043972279808  6.4575650188755205   T   T   T
  6.0930599078255110  1.8808406562248996 10.7121550735867004   T   T   T
  5.5172708990321802  3.2058571916085499  8.4561878776964399   T   T   T
  7.6388748138537608 -3.0928996619441702  2.0820915662532800   F   F   F
  3.8907452164992300 -1.9529003018489701  4.2754445050562202   F   F   F
  1.7044892512269501 -0.6570281212761000  4.2506117364040605   F   F   F
  7.6604480056419799 -0.4703623935913703  2.1224154197492004   F   F   F
  3.2390487635163203 -0.6115092160380800  8.4658252890097607   T   T   T
  0.9436131066630500  3.2758924776550398  2.1555366363757802   F   F   F
  8.4201434200508398  0.6991679146912402 10.5518734808882400   T   T   T
  4.7576225561264813  4.5317388848274591  6.3744923880284805   T   T   T
  6.1169048187337811  4.5605297816928605  4.3095715048250405   F   F   F
  3.9000825506956098  5.8301186427116996  4.3561074636363006   F   F   F
  8.4479339068853321  0.7504322492784800  4.3213217414425804   F   F   F
  3.9059357643958501  5.7598481879605998 10.6957067482949810   T   T   T
  1.6820086118226902  7.0628998684053306  4.3576128834506207   F   F   F
  0.1725309790780900  9.6688577672968794  6.4621305208278601   T   T   T
  3.1715902476788203  4.5573931326204695  8.5993932742302803   T   T   T
  6.0966042464075896 -3.1676756101544696  4.2979834548116607   F   F   F
  3.1206443418142205  7.2933173037391104  2.1258434527795602   F   F   F
  1.7338062057009203 -0.5569332732234102 10.6556520735876816   T   T   T
  0.1128099125845200  7.0993519545825698  6.4397450181712408   T   T   T
  0.9476342752742800  0.6020212442032500  2.0803049053747200   F   F   F
  2.4358408849042701  8.5224555796053707  6.4890433407541401   T   T   T
  2.4716154357014806  0.6665041338319201  6.3829012197652810   T   T   T
  3.9110449744960003  0.7808161282998097  4.2608044967819607   F   F   F
  4.6148570526563901 -0.4433170422365997  6.4560566445809808   T   T   T
  0.0685628301945900  4.6242442757564097  6.5551249877246205   T   T   T
  1.8268896612564600  1.9622618035862800 10.6567781869930407   T   T   T
  7.7009128135246812  4.5813054859197599  8.4482304711982010   T   T   T
  0.9137491148113500  3.3491225595341199  8.6136894542634206   T   T   T
  6.9595617504146201  5.8065054105654106  6.4221618251671604   T   T   T
  3.8696645086321806  0.6262616520864295 10.5469206831868405   T   T   T
  1.7514897858797600  4.5350681681242300 10.5654652323038807   T   T   T
  6.1779482873721809 -0.5806928596169703 10.5231199018379211   T   T   T
  1.6838353074473402  4.6500639295675796  4.3384246163743603   F   F   F
  4.7842635751759905  1.9710445637756999  6.2544037785087010   T   T   T
  0.8749817494520400  5.7299530255885003  8.5999817659563593   T   T   T
  7.6676571696054800  1.8651072315490596  8.4528197566804817   T   T   T
  6.9784950775211305  3.3713588201427895  6.3873078705279802   T   T   T
  6.1475578831355504  1.9961974845924599  4.2959753701033803   F   F   F
  6.9568630412379306  0.7832915728490198  6.4487387147859412   T   T   T
  5.4324357196372599  0.5737906318528803  8.5032808292890394   T   T   T
  3.7661201407920708  3.2903385301847905 10.6617908888709803   T   T   T
  6.8350690458459207 -1.7611262950673403  6.4796819257782401   T   T   T
  7.7419376633189003  2.0091791796972998  2.0305414884455204   F   F   F
  0.9495897264283101  5.8730926849553207  2.2589322638409404   F   F   F
  3.9220389167086398  3.3200706070967394  4.2947413434796404   F   F   F
  7.7193913414293309 -0.5601189398437610  8.5795109298556209   T   T   T
  5.4409417287457700 -1.8261577325727798  8.6083343617105808   T   T   T
  5.3476260759139098 -1.8655597480013597  2.1358807246250202   F   F   F
  0.9082608755440802  8.3550907069620202  2.1285184107234403   F   F   F
  3.0772893685651601 -0.5668594718032401  2.0913831529290401   F   F   F
  7.6383014018946609 -3.1601930052958007  8.6345600802955200   T   T   T
  7.7483230520549302  4.6192245030598604  2.0849841662146202   F   F   F
  3.0990653512511206  1.9524236310853897  2.0779178670889604   F   F   F
