Pt Pd Ni Co Fe 
 1.0000000000000000
     9.0348150000000000   -5.1878500000000001   -0.0082870000000000
    -0.0577960000000000   10.2815770000000004   -0.0342180000000000
    -0.0094090000000000   -0.0583070000000000   22.9315239999999996
 Pt  Pd  Ni  Co  Fe 
  17  17  16  16  14
Selective dynamics
Cartesian
  4.6035769344412696  7.0827549622820598  6.4980245590348904   T   T   T
  2.2668479050476704  8.3802634420227609  6.3807632980999394   T   T   T
  3.8239752783414902  5.8870920654534213  4.1796454859345005   F   F   F
  8.3859637510690703 -1.9815607092418397  4.2504054727682599   F   F   F
  6.1852298332290703  1.9398434297906100 10.7132076610179787   T   T   T
  5.3417601958567298 -1.8742766868847598  2.2315170744380901   F   F   F
  1.5629400664085100  7.1197087122776308 10.8653184541187802   T   T   T
  3.8594452253774798  0.6597725996903402 10.8070448709006008   T   T   T
  0.1580431364838700  4.4946802047007610  6.4616693208987304   T   T   T
  3.8303538491239797  3.2111309604918401  4.1806483240697005   F   F   F
  4.5917705444859500  4.3583002889293008  6.5160518679340695   T   T   T
  5.3992464477391904 -1.9794495487926798  8.7849265624171302   T   T   T
  7.7144308625757603  2.0553405409815801  2.1166878407740000   F   F   F
  6.9438519864034891  5.7171948897931202  6.5377178257234698   T   T   T
  0.9549652661722100  5.8279637339213304  2.0495320194363402   F   F   F
  8.5061127848411608 -4.5936905434795205  4.2084181779746697   F   F   F
  0.8276932113855500  0.7042912338371000  8.6114836823935690   T   T   T
  3.0130707060930204  1.8846078006032601  2.0489648081850600   F   F   F
  6.9205979056684201 -1.9259452914091399  6.5373244483140001   T   T   T
  3.8267503470939701  5.6354710750628092 10.8768116748852304   T   T   T
  7.6700937781329408 -0.6443774681683297  2.1284115150151899   F   F   F
  3.1321927239240002 -0.6387826039575497  8.6403670767954690   T   T   T
  3.8704313055416901  0.5406607942746700  4.2460580712174405   F   F   F
  6.9222552598337899  3.0618727156141206  6.4318904170177795   T   T   T
  0.9169246670692001  5.8306087406230995  8.6440572651888488   T   T   T
  8.4002501328315304  0.6999976181998903  4.3223185989599395   F   F   F
  2.3827365206380202  0.7243562197082102  6.4163565870532295   T   T   T
  8.4998916673202896 -4.5591908328603798 10.9647328767952796   T   T   T
  5.4135491881258497  5.8045102062469507  2.0249934280727899   F   F   F
  6.1836377157977802  4.4653066085956405  4.2197673472265400   F   F   F
  6.1841427359842207 -3.2315627853639404 11.0339659754143291   T   T   T
  2.3482207793612702  5.7700722543459593  6.4240954736255791   T   T   T
  5.3783086565193203  3.2087141688729601  2.0195530144979901   F   F   F
  7.6746858399069398 -0.6309397456171801  8.7177756348682287   T   T   T
  1.6495142719320199 -0.6720939292419901  4.2427020483958602   F   F   F
  0.9206866733889000  8.4574018685521004  2.0792267786469401   F   F   F
  8.4953478535721008  3.1963075534456000  4.2684233849435795   F   F   F
  8.3752866663210401  0.6149337970871701 10.8064927391348107   T   T   T
  5.3847502469268598  0.6350913278920304  2.1369248363284901   F   F   F
  3.0419857766422003  7.1774459294310002  2.0790778569808896   F   F   F
  7.7322861009001196  4.5563589669944609  1.9888086998149499   F   F   F
  6.8557736404990308  0.6158153229529403  6.4596879960184195   T   T   T
  8.4193431387056208  3.1404688135410099 10.6115586355794296   T   T   T
  3.8947391445540398 -1.9288468570065298  4.3320373152628395   F   F   F
  6.1469776693832205  1.8416134760028604  4.2500179884952596   F   F   F
  7.6119713536668705  4.4166984508689096  8.6778139467284205   T   T   T
  6.1211557056396195 -0.7005982898245897  4.4206661391918693   F   F   F
  0.8906570835045601  0.6256791597498300  2.0793729537431100   F   F   F
  0.1782813329719200  1.9185482671346601  6.4081070595775804   T   T   T
  8.4334974000139287 -1.9512676778875602 10.7419473776921492   T   T   T
  0.0689408926962700  7.1256430615304112  6.4614325675999496   T   T   T
  3.1239877744683899  4.5492304115447197  1.9659857730685597   F   F   F
  0.8885769102528900  3.2106242961704199  2.0994919287167799   F   F   F
  1.6373570053603299 -0.6692977665430598 10.6909121771711302   T   T   T
  3.2481051046455502  2.0470429474271996  8.5394619527034301   T   T   T
  1.6028032878885099  7.1660965421379306  4.2033323918114096   F   F   F
  5.3334889782706902  5.6514974654408210  8.7030147245233298   T   T   T
  1.6074005403529301  1.9284635342836900  4.2163495196929004   F   F   F
  6.1506974825504201 -0.6239151469270399 10.8072338441850100   T   T   T
  2.3385974244909304  3.1782709180716902  6.3839991599744499   T   T   T
  0.9900889271576500  3.2215960166251500  8.5620649166257188   T   T   T
  7.6629783079775704  1.9478024124433597  8.5775356873080302   T   T   T
  4.6796280581916800  1.7980573951659902  6.5169724562091806   T   T   T
  5.3946789584865904  0.7056553885121197  8.5235941075968906   T   T   T
  1.6124767784393501  4.4699709529254505  4.1552772139421403   F   F   F
  0.7320076178539900  8.3819356840479724  8.5354703104197789   T   T   T
  3.8557315834212198 -1.9094134226691397 10.9057976112647594   T   T   T
  4.7061454801842704 -0.6053259852661399  6.4589283032634697   T   T   T
  3.0884936185949003 -0.6639246783699999  2.1129912140466800   F   F   F
  7.7773238895991099 -3.2655852651236201  2.0687029635728997   F   F   F
  3.1400952645279201  7.0428136500138114  8.7527003294063697   T   T   T
  3.8296033412079500  3.1562274981034002 10.6490387519642802   T   T   T
  1.4681240879784201  4.4420341156254608 10.6933562381790601   T   T   T
  1.6374147129357799  2.0364492700707899 10.6648594129946801   T   T   T
  7.6343406107791996 -3.3182831425155004  8.7613603241987903   T   T   T
  3.1278931291426200  4.3627456544713610  8.6004383224685910   T   T   T
  6.1386309054624002 -3.1809642628565000  4.4083608787354303   F   F   F
  6.1704633587379698  4.4867511564674105 10.6371393776834395   T   T   T
  0.1011600229210200  9.5986642378439093  6.4161023424815999   T   T   T
  5.4470475861076508  3.1269127188419503  8.5647679886091499   T   T   T
