Pt Pd Ni Co Fe 
 1.0000000000000000
     8.9737360000000006   -5.1895480000000003    0.0044630000000000
    -0.0247690000000000   10.3424999999999994   -0.0160880000000000
     0.0218050000000000   -0.0357650000000000   22.9062790000000014
 Pt  Pd  Ni  Co  Fe 
  14  18  16  14  18
Selective dynamics
Cartesian
  4.6578102063105495  7.0228285423916601  6.4448331697640802   T   T   T
  3.8434341685613003  3.1618471165721593  4.1720377703352609   F   F   F
  2.4517272816876794  8.4672280019448980  6.4128240974439512   T   T   T
  1.6494505110842901  1.9162785201096699 10.8135418541490296   T   T   T
  6.1561262354491806  2.0059701625377193 10.7985843148716114   T   T   T
  6.8739047992992903  0.6492779406680987  6.5352971554636303   T   T   T
  8.3893042481001014  0.6189827366325290  4.2914068217444701   F   F   F
  7.5941178089244206  2.0238410498887092  2.1339270430715800   F   F   F
  3.8653046311845007  0.5936050497558397 10.8706567719467007   T   T   T
  8.3618538389517312 -1.9466453244747806 10.8625498845320099   T   T   T
  7.6503988384644606 -3.2649615062258399  8.5261607164924005   T   T   T
  1.7149180351085200  4.6393728582435392 10.8466437288252600   T   T   T
  0.1347619795839700  9.8559451742806896  6.3720589664779297   T   T   T
  3.1378530708956509  1.9090848128729396  8.4410720812431403   T   T   T
  3.0879940167717903  7.2065646842525091  2.0383573738187999   F   F   F
  5.3475795758799203 -1.9332400646217505  8.6649228164244114   T   T   T
  5.2911096639882409  0.6145995532517596  2.1562708040735301   F   F   F
  0.1912332552537500  4.3932776475776096  6.4607857417810202   T   T   T
  7.6274873027454309 -0.7448354201928007  2.1230267904965299   F   F   F
  0.1752275106864000  7.1055953518285406  6.4733165579362399   T   T   T
  3.1767430621009005  4.5573505902936793  8.5412397836989307   T   T   T
  6.7469464355195408  3.2462751443898497  6.4797517278769998   T   T   T
  4.6053626073498304 -0.5788542545823505  6.4277338902947605   T   T   T
  6.2336876798260006  4.5046113786599404  4.2346264934421400   F   F   F
  5.4439638787326610  5.8790764767157597  2.0884195399175400   F   F   F
  8.3268010763341902 -4.6840047352636001 10.7835921269679407   T   T   T
  3.8796880743561704  5.8898649734904707  4.2374955943543302   F   F   F
  0.8431197601898600  5.8172012634148889  8.6459482261467802   T   T   T
  6.1283175396947103 -0.6540852956980806 10.8884005868507217   T   T   T
  6.2200378730155998 -3.1225489654787699  4.2300273507578501   F   F   F
  0.8634457314849001  8.4906288219867392  8.6999586494436496   T   T   T
  1.6082730148560105  7.2612302910314996  4.1956368765854002   F   F   F
  6.1247579379391199  1.9315150185415597  4.2653890679709203   F   F   F
  4.6273251307188108  4.5117965131144793  6.4527280709821602   T   T   T
  1.6730001647934001 -0.6897963071705001 10.7658199210237218   T   T   T
  0.8463777091582401  0.6792340854452498  2.1292028348511503   F   F   F
  0.9306298231114501  5.7488227154250291  2.0877640377489102   F   F   F
  8.4015468280473709  3.2784073946180290  4.2870843177435898   F   F   F
  3.0827689248922399 -0.6059266449472802  2.1983222187270202   F   F   F
  7.5418070953564209  1.9613456843324790  8.6646091843699207   T   T   T
  6.9543793105800802 -1.9811880953966103  6.4072109157270205   T   T   T
  0.8548186767743301  3.1847380427360394  8.5486911419764695   T   T   T
  8.4531191738295224 -4.5097434252340207  4.2377395114023502   F   F   F
  0.8776715024073801  8.5643067950056189  2.0710513739012701   F   F   F
  4.5687230704941504  1.9809405917438594  6.4070187572813797   T   T   T
  6.0867524765215704  4.4830536712240896 10.6624803173041904   T   T   T
  5.4115273807305408  3.2625262530204600  8.6271259545766199   T   T   T
  3.0882547780026703  4.5345061658782804  2.1293810800148800   F   F   F
  6.0766268597464803 -0.5923327127837904  4.3040505004969196   F   F   F
  8.3657425971725896  3.1731600124119295 10.6936138739308113   T   T   T
  1.5906127408713102  1.9122433164412398  4.1969607746667004   F   F   F
  8.5164697856478497 -1.9732379051797901  4.2869801096066702   F   F   F
  3.1215453365586798  7.1298469715904398  8.6312807096485908   T   T   T
  7.5257514419027016  4.5177884530864496  8.5507734794410499   T   T   T
  5.3168120926736808  3.2260550955950298  2.0916868788170602   F   F   F
  4.0371101331315602  5.8914558422532783 10.6764748658504800   T   T   T
  3.9215052421491103 -1.7871002893979799  4.2926539765271201   F   F   F
  6.0505824861636208 -3.2825368311878300 10.8134660842481711   T   T   T
  7.5792329378280909 -0.6212651709011808  8.6262625799706303   T   T   T
  3.9623353801005403  3.2842124251737292 10.7362800167275001   T   T   T
  1.7057987396172503  7.1744060939823893 10.7925926670730412   T   T   T
  3.0754867689479299  1.9173441830332891  2.1953668739203005   F   F   F
  3.1000516348345699 -0.6787893104389502  8.6452481971875610   T   T   T
  6.8852437151620514  5.8714525158462401  6.4204217530555496   T   T   T
  2.4097572521675903  0.7709898833396898  6.3626134204699003   T   T   T
  1.5994919073465401 -0.5134685879653502  4.2105758266193805   F   F   F
  2.4233996797268502  5.7971783736876992  6.4041190211722503   T   T   T
  7.7017892410897302  4.5144821194164182  2.1137676487933299   F   F   F
  3.8191139617521799 -1.9984939274350997 10.7724973004992108   T   T   T
  2.3900343856664503  3.1572445564726097  6.4044227873442896   T   T   T
  3.8579979893453600  0.5836011763921797  4.2781421126485597   F   F   F
  8.3604992293279405  0.6514648495379891 10.7806589859601711   T   T   T
  0.9359308477885201  3.2168383822531799  2.1969178725793101   F   F   F
  5.3400357891770209 -1.9041534564875500  2.0917558592520802   F   F   F
  7.7822544619495302 -3.2591774852262301  2.1367210330127300   F   F   F
  1.5930269966858701  4.5044938514067798  4.2208811355935802   F   F   F
  0.8961100473524701  0.7183195278622099  8.5500411915563408   T   T   T
  5.4425421607040310  0.6880766107942293  8.6216124142837511   T   T   T
  5.3665760139687304  5.7445396598966996  8.6533081578424902   T   T   T
  0.1116552560176700  2.0068436844068902  6.3503401017988006   T   T   T
