Pt Pd Ni Co Fe 
 1.0000000000000000
     8.9645670000000006   -5.0970750000000002   -0.0554420000000000
     0.0644260000000000   10.3118449999999999    0.0416760000000000
    -0.0230490000000000    0.0365270000000000   22.9434980000000017
 Pt  Pd  Ni  Co  Fe 
  15  16  18  14  17
Selective dynamics
Cartesian
  5.3870828187918800  5.9518448315948005  2.1903580643572802   F   F   F
  8.5045222085012711 -1.7382502744192401 10.7454866796104618   T   T   T
  6.1646609548728994 -3.0715064787967701 10.8175128399775211   T   T   T
  0.0647660506925800  2.0181736613459500  6.5452236072812413   T   T   T
  5.5271687776787397  5.8563431471926801  8.5640088200840410   T   T   T
  2.4629598078065702  3.3235453808452999  6.4322545563131808   T   T   T
  3.1108389734638497  4.5765727658316395  2.2200361440076199   F   F   F
  5.4736043491441704  3.2765891183954396  2.1412797793182201   F   F   F
  8.4760426469271604 -4.3979161064133905 10.8164625608681213   T   T   T
  3.1986690238417301  7.1792270655491297  8.6401008769464607   T   T   T
  1.7240972492627002  2.0090247608398597  4.2132858029558804   F   F   F
  8.3948903863178916  3.2125248473095698  4.2107817997867807   F   F   F
  8.3363933556863898 -4.4341334078142900  4.2143548522103407   F   F   F
  0.8597185171684399  8.3384043748816694  8.5081428477356802   T   T   T
  0.9293244236474900  0.6740448119030401  8.5774845722557806   T   T   T
  8.3796628357982215  3.2803437482200604 10.7292627832044012   T   T   T
  5.3198535968514600  0.7027058501848499  2.1030956998902401   F   F   F
  3.2301606333107102  1.9737852898727397  8.5279911755754600   T   T   T
  1.6821668396637901  7.0617402518916093 10.8827909864246610   T   T   T
  3.8903854446772002 -1.7716060164371001 10.8237813053455607   T   T   T
  8.4049067444106988 -1.7706763441735101  4.3305708301336807   F   F   F
  6.0667500031717010  4.5747185129036394 10.8664551926459207   T   T   T
  6.1027964217414796 -0.5341592115453601  4.3462863305578407   F   F   F
  4.7556142374743899  7.1845879193822908  6.4636542317917414   T   T   T
  2.3455871808197499  5.9137148677950702  6.4642277146599412   T   T   T
  6.0601343018073504  1.9121055097716804 10.7430215208059021   T   T   T
  5.5092238047945603  3.2167190874430203  8.4628378254961607   T   T   T
  7.6388748138537608 -3.0928996619441702  2.0820915662532800   F   F   F
  3.8907452164992300 -1.9529003018489701  4.2754445050562202   F   F   F
  1.7044892512269501 -0.6570281212761000  4.2506117364040605   F   F   F
  7.6604480056419799 -0.4703623935913703  2.1224154197492004   F   F   F
  3.2223902549882606 -0.5929129766358603  8.4765895190361196   T   T   T
  0.9436131066630500  3.2758924776550398  2.1555366363757802   F   F   F
  8.4046958975639807  0.7296298258223390 10.5617300363708413   T   T   T
  4.7477866412961900  4.5365607735327895  6.3809693805717806   T   T   T
  6.1169048187337811  4.5605297816928605  4.3095715048250405   F   F   F
  3.9000825506956098  5.8301186427116996  4.3561074636363006   F   F   F
  8.4479339068853321  0.7504322492784800  4.3213217414425804   F   F   F
  3.8854127137329098  5.7956907213948403 10.7043560352607408   T   T   T
  1.6820086118226902  7.0628998684053306  4.3576128834506207   F   F   F
  0.1716640313025900  9.6859610962538394  6.4606405215815004   T   T   T
  3.1617377370870408  4.5842681613669889  8.6045414120969603   T   T   T
  6.0966042464075896 -3.1676756101544696  4.2979834548116607   F   F   F
  3.1206443418142205  7.2933173037391104  2.1258434527795602   F   F   F
  1.7137963481458101 -0.5264853863186801 10.6735825377265012   T   T   T
  0.0920465923619700  7.1032145519186303  6.4343262645251400   T   T   T
  0.9476342752742800  0.6020212442032500  2.0803049053747200   F   F   F
  2.4373840052927602  8.5370671538728118  6.4928312461241209   T   T   T
  2.4687439746001600  0.6829708086468399  6.3932133607739203   T   T   T
  3.9110449744960003  0.7808161282998097  4.2608044967819607   F   F   F
  4.6213610256376008 -0.4285040740849002  6.4688194552310412   T   T   T
  0.0407271101777900  4.6360580738143993  6.5656160740725804   T   T   T
  1.8006583109594501  1.9934420648385802 10.6626873000816609   T   T   T
  7.6942961590671519  4.5932330910358683  8.4522985541172204   T   T   T
  0.8913901941149200  3.3700638290602805  8.6254631372684010   T   T   T
  6.9455021599851712  5.8103745978324399  6.4263707418862204   T   T   T
  3.8409481257497804  0.6514066561212595 10.5664131234359999   T   T   T
  1.7438296439282501  4.5700306342625696 10.5760721016525405   T   T   T
  6.1551281315928197 -0.5463209801198302 10.5351803271444808   T   T   T
  1.6838353074473402  4.6500639295675796  4.3384246163743603   F   F   F
  4.7706087937298793  1.9890993526011400  6.2609282550135603   T   T   T
  0.8624823333012300  5.7523663680983503  8.6011262165576206   T   T   T
  7.6597021811799904  1.8794187239906499  8.4632749761926203   T   T   T
  6.9641377247008904  3.3763083835900796  6.3985115383539002   T   T   T
  6.1475578831355504  1.9961974845924599  4.2959753701033803   F   F   F
  6.9378787769897894  0.7866527210382706  6.4531541498353002   T   T   T
  5.4021049816881002  0.5973381797849000  8.5220186524343600   T   T   T
  3.7438891729787405  3.3224190838009102 10.6704461787290015   T   T   T
  6.8249344255913007 -1.7774426073881400  6.4707585883300807   T   T   T
  7.7419376633189003  2.0091791796972998  2.0305414884455204   F   F   F
  0.9495897264283101  5.8730926849553207  2.2589322638409404   F   F   F
  3.9220389167086398  3.3200706070967394  4.2947413434796404   F   F   F
  7.7000302974561912 -0.5298005191465505  8.5877813071910598   T   T   T
  5.4392866056950595 -1.8067858152750400  8.6139986459725613   T   T   T
  5.3476260759139098 -1.8655597480013597  2.1358807246250202   F   F   F
  0.9082608755440802  8.3550907069620202  2.1285184107234403   F   F   F
  3.0772893685651601 -0.5668594718032401  2.0913831529290401   F   F   F
  7.6370124548051406 -3.1406950539062208  8.6492245586855603   T   T   T
  7.7483230520549302  4.6192245030598604  2.0849841662146202   F   F   F
  3.0990653512511206  1.9524236310853897  2.0779178670889604   F   F   F
