Pt Pd Ni Co Fe 
 1.0000000000000000
     8.9674209999999999   -5.1014980000000003   -0.0417960000000000
     0.0607130000000000   10.3143170000000008    0.0324100000000000
    -0.0101430000000000    0.0251350000000000   22.9479520000000008
 Pt  Pd  Ni  Co  Fe 
  16  16  17  17  14
Selective dynamics
Cartesian
  4.0284555656300496 -1.8424350387328101  4.2936683678399001   F   F   F
  3.9479472813114200 -1.9897628582245701 10.7953166889204599   T   T   T
  1.6415357325510300  2.0767556212859706 10.8275837173240799   T   T   T
  0.9190783120934100  5.8584242766991208  8.5018001706975603   T   T   T
  8.3687334637394812  3.2840155835045999 10.8318366657466001   T   T   T
  3.1165052105473898 -0.6742373357725500  8.5379973755547400   T   T   T
  3.2802238921456297  7.1735324873632909  2.1902359007509999   F   F   F
  6.8589929181156402  3.1870652776997703  6.3235383352519605   T   T   T
  1.6575393604771800  2.1031493612146401  4.1950909539355399   F   F   F
  4.7021485308554194 -0.5967223794734801  6.4512206889438604   T   T   T
  3.2526545530511299  4.4349708494899405  2.2158658700397402   F   F   F
  7.5980331885796391 -3.1235183767655901  2.0674907016469199   F   F   F
  8.3548237447934408  0.7296269695727601 10.7491323757865604   T   T   T
  8.2984844878643198 -1.7949670992693403 10.7521421015620202   T   T   T
  5.5265189161814403  0.6856207628357802  8.5820451857824001   T   T   T
  0.2600900905266100  9.6339762459681708  6.4339595086043602   T   T   T
  0.9322488712115400  0.8053703872466401  8.5621677566740200   T   T   T
  3.1738973896590301  4.6095667928445208  8.5494682520033614   T   T   T
  8.3001918040758209 -4.4535587580797200  4.2024242376607601   F   F   F
  6.7887834930078306  5.9516541096811908  6.4389920508551794   T   T   T
  1.6311191409562500 -0.6456787419316001 10.8622386060858194   T   T   T
  1.6727192849411301 -0.5728493003180800  4.2140813762449598   F   F   F
  7.6655360059268700  4.6512394435893896  8.5765565711376013   T   T   T
  5.4266855538053695  3.3438979108675304  8.5792867918910805   T   T   T
  7.5894853884197104 -0.5101626743790598  2.2127306223028200   F   F   F
  4.0178656142457996  0.8028478270733999  4.2981152379914800   F   F   F
  3.9522946715824006  3.3884987854889204 10.8969540697149796   T   T   T
  3.9669276515107601  0.7071161106202402 10.8652994519712607   T   T   T
  0.1413420373908600  2.1208652445635203  6.4483501975862803   T   T   T
  1.6628506147300199  7.1463502474333112  4.3753436063468003   F   F   F
  0.8931688287455399  5.8297374741992707  2.2227248001540003   F   F   F
  8.2657393547103908 -4.4061010986238509 10.8429250853617809   T   T   T
  4.6207035530961109  7.1335853483512812  6.5451955112578597   T   T   T
  6.1474694940183703 -3.1249095376440001  4.2399973822395998   F   F   F
  6.9037830414388193 -1.8135981699137802  6.4448541644164408   T   T   T
  0.9306385556903299  0.6731378202530500  2.0372361471813600   F   F   F
  3.1912857369395398  2.0132245228515400  8.5210071285042392   T   T   T
  3.1959519666159499  7.1164215394843708  8.6033447700184009   T   T   T
  3.1918175428056395 -0.5208598463656400  2.0961608010978803   F   F   F
  6.0845537219990904 -3.1526433654645101 10.6734123188885803   T   T   T
  1.6519472140960298  4.6113835798752900 10.7612735741746608   T   T   T
  2.4399345168747697  5.8265453664286797  6.4233171851738806   T   T   T
  2.4280360127252796  8.3609700172504908  6.5452029059571810   T   T   T
  1.7183785274296599  7.1066691328342113 10.7027361682470001   T   T   T
  4.0361485249533500  3.3204761527429598  4.3010967390088801   F   F   F
  3.1415898826463495  1.9269449209921705  2.1250687144858200   F   F   F
  6.1430281395912187 -0.5718925335434396 10.7133369599629997   T   T   T
  4.6115744767345399  4.5790683113020103  6.3850908009560206   T   T   T
  7.6491089252840894  2.1354110730519098  2.1866903189069999   F   F   F
  2.4616951510109599  3.2674423767439609  6.4265656416420596   T   T   T
  0.1416233520743400  4.6487081232628302  6.3668836943837208   T   T   T
  6.1211514590849196  4.6327912324280200 10.7339243270209401   T   T   T
  5.4109862769175896  5.9827419194818194  8.6928997940536004   T   T   T
  5.3788437067923400 -1.7677079675184204  2.0849515216360399   F   F   F
  7.7028127408111802 -0.6072141269594602  8.4670898204712408   T   T   T
  5.4966166840644899  3.2370777690465697  2.1570100802291803   F   F   F
  8.3225940363898303  3.2359568187135501  4.1931240151404001   F   F   F
  0.8002155748996299  8.5093730748971197  2.1871078873244003   F   F   F
  3.9911361663018701  5.8402186231923299  4.3195969426092402   F   F   F
  6.2005581273662207  2.0835775340475804  4.1660448789768596   F   F   F
  1.6858347970057999  4.6144003526486701  4.3667504090568805   F   F   F
  4.0314045665248504  5.8886946021429214 10.7236692718056208   T   T   T
  7.7187480195099702  1.9692262958402404  8.5376329688285804   T   T   T
  8.3950433173004715  0.7783910615432897  4.3239354610956804   F   F   F
  6.1115291157488691  4.5780337078787801  4.2484466087747803   F   F   F
  4.5837424332050389  2.0558868886501704  6.4574082238940607   T   T   T
  6.9408080379274599  0.6660281207548802  6.4188552845658995   T   T   T
  0.9474452781353200  3.1973694537630801  2.0442033043096801   F   F   F
  6.1798909954516894  2.0539084763121203 10.7480049090989400   T   T   T
  5.3407797687023093  0.7082166074155800  2.1419765822855399   F   F   F
  0.9165637215663600  3.3158431158811603  8.5806194052315998   T   T   T
  7.7212296936724698  4.5635070026837399  2.1376062867057799   F   F   F
  7.5387493366216694 -3.0475576668524900  8.5910604128581198   T   T   T
  0.9265324909684400  8.3832865974961805  8.6365731380626407   T   T   T
  2.4254316201514201  0.7625596819651199  6.4714537653610202   T   T   T
  8.3458548342141192 -1.7799087242168503  4.3036154357693199   F   F   F
  5.4550720733919409  5.8041334138364897  2.1824421521002200   F   F   F
  6.2159801102689505 -0.5417943876518303  4.3751526608642202   F   F   F
  0.1740289783008400  7.0882328277790210  6.4046473693805810   T   T   T
  5.4342055870298696 -1.9341137976113199  8.5976882004328399   T   T   T
