Pt Pd Ni Co Fe 
 1.0000000000000000
     9.0348150000000000   -5.1878500000000001   -0.0082870000000000
    -0.0577960000000000   10.2815770000000004   -0.0342180000000000
    -0.0094090000000000   -0.0583070000000000   22.9315239999999996
 Pt  Pd  Ni  Co  Fe 
  17  17  16  16  14
Selective dynamics
Cartesian
  4.6072450963623108  7.0751614112457295  6.5010545517547502   T   T   T
  2.2713313824567898  8.3808206618050711  6.3833087639145996   T   T   T
  3.8239752783414902  5.8870920654534213  4.1796454859345005   F   F   F
  8.3859637510690703 -1.9815607092418397  4.2504054727682599   F   F   F
  6.1923607483096603  1.9659263573511296 10.7163342070202603   T   T   T
  5.3417601958567298 -1.8742766868847598  2.2315170744380901   F   F   F
  1.5619462380198199  7.1373029587056109 10.8602519486095304   T   T   T
  3.8609179720116003  0.6974646544948999 10.7771548629180600   T   T   T
  0.1570368958491700  4.4957457344463103  6.4580468429430695   T   T   T
  3.8303538491239797  3.2111309604918401  4.1806483240697005   F   F   F
  4.5877211483765103  4.3563144921162307  6.5203125185083399   T   T   T
  5.4056166246189106 -1.9801832502291199  8.7892545884985100   T   T   T
  7.7144308625757603  2.0553405409815801  2.1166878407740000   F   F   F
  6.9447004067861906  5.7158069348962703  6.5406172005268495   T   T   T
  0.9549652661722100  5.8279637339213304  2.0495320194363402   F   F   F
  8.5061127848411608 -4.5936905434795205  4.2084181779746697   F   F   F
  0.8249411848629798  0.7016734558940401  8.6047728887777701   T   T   T
  3.0130707060930204  1.8846078006032601  2.0489648081850600   F   F   F
  6.9207056204468103 -1.9281260473005701  6.5388251802493702   T   T   T
  3.8411200724006798  5.6733139050217902 10.8903148502435112   T   T   T
  7.6700937781329408 -0.6443774681683297  2.1284115150151899   F   F   F
  3.1359835793107602 -0.6416693009876200  8.6365502051479286   T   T   T
  3.8704313055416901  0.5406607942746700  4.2460580712174405   F   F   F
  6.9225844512926100  3.0628936319919808  6.4339831365840094   T   T   T
  0.9193737323879499  5.8324313295908006  8.6422365468446696   T   T   T
  8.4002501328315304  0.6999976181998903  4.3223185989599395   F   F   F
  2.3810556510072103  0.7227764816665800  6.4113217525443398   T   T   T
  8.5140697387533404 -4.5271836475975302 10.9643450653324006   T   T   T
  5.4135491881258497  5.8045102062469507  2.0249934280727899   F   F   F
  6.1836377157977802  4.4653066085956405  4.2197673472265400   F   F   F
  6.1993087967754201 -3.1958452157142405 11.0572388346717894   T   T   T
  2.3490247854891599  5.7696458459750302  6.4274503850476501   T   T   T
  5.3783086565193203  3.2087141688729601  2.0195530144979901   F   F   F
  7.6783646175739397 -0.6326284130346798  8.7202639348674289   T   T   T
  1.6495142719320199 -0.6720939292419901  4.2427020483958602   F   F   F
  0.9206866733889000  8.4574018685521004  2.0792267786469401   F   F   F
  8.4953478535721008  3.1963075534456000  4.2684233849435795   F   F   F
  8.3795521129172492  0.6315674518596505 10.8027399524963403   T   T   T
  5.3847502469268598  0.6350913278920304  2.1369248363284901   F   F   F
  3.0419857766422003  7.1774459294310002  2.0790778569808896   F   F   F
  7.7322861009001196  4.5563589669944609  1.9888086998149499   F   F   F
  6.8599686203138406  0.6188097589849202  6.4650652548110203   T   T   T
  8.4250812044000210  3.1641966053481609 10.6196595724508498   T   T   T
  3.8947391445540398 -1.9288468570065298  4.3320373152628395   F   F   F
  6.1469776693832205  1.8416134760028604  4.2500179884952596   F   F   F
  7.6099746824383905  4.4157565778391703  8.6803896917220804   T   T   T
  6.1211557056396195 -0.7005982898245897  4.4206661391918693   F   F   F
  0.8906570835045601  0.6256791597498300  2.0793729537431100   F   F   F
  0.1795542323442800  1.9222436034435899  6.4123093035697103   T   T   T
  8.4480372400686008 -1.9210207282652503 10.7497820875435703   T   T   T
  0.0691581065344300  7.1298891802508413  6.4605663128376394   T   T   T
  3.1239877744683899  4.5492304115447197  1.9659857730685597   F   F   F
  0.8885769102528900  3.2106242961704199  2.0994919287167799   F   F   F
  1.6464397011222398 -0.6479274285914799 10.6939044770707099   T   T   T
  3.2484015446349601  2.0452397901191306  8.5161033547288199   T   T   T
  1.6028032878885099  7.1660965421379306  4.2033323918114096   F   F   F
  5.3310179982508705  5.6496013627588102  8.7111842819288103   T   T   T
  1.6074005403529301  1.9284635342836900  4.2163495196929004   F   F   F
  6.1512509777498803 -0.5973860902098100 10.8001387345887405   T   T   T
  2.3393776014143799  3.1778690385447401  6.3807943286418203   T   T   T
  0.9720871182105900  3.2218613243727701  8.5608415032012797   T   T   T
  7.6640291308037201  1.9459306798447598  8.5801588661412502   T   T   T
  4.6826159804429501  1.7955136636467501  6.5068939479358399   T   T   T
  5.3988405752651891  0.7071752855964705  8.5172069010520701   T   T   T
  1.6124767784393501  4.4699709529254505  4.1552772139421403   F   F   F
  0.7288182448665500  8.3846985486102508  8.5430583180676098   T   T   T
  3.8483060211293498 -1.8760712890180999 10.9049119255979097   T   T   T
  4.7108001500429006 -0.6057790889618002  6.4610778865502496   T   T   T
  3.0884936185949003 -0.6639246783699999  2.1129912140466800   F   F   F
  7.7773238895991099 -3.2655852651236201  2.0687029635728997   F   F   F
  3.1506584842754606  7.0346231351247805  8.7581719072306097   T   T   T
  3.8531501133002606  3.1979710233444303 10.6502719755886091   T   T   T
  1.4872608527108402  4.4798172805612708 10.7112713697910298   T   T   T
  1.6565315841144601  2.0820495114151303 10.6339582164358184   T   T   T
  7.6264525534903296 -3.3180700217082597  8.7674833246854096   T   T   T
  3.1183331455029699  4.3467202443378099  8.6127512821395307   T   T   T
  6.1386309054624002 -3.1809642628565000  4.4083608787354303   F   F   F
  6.1884827945057896  4.5179609675554202 10.6449589308720611   T   T   T
  0.1022234891066400  9.5962042523469702  6.4228261935580102   T   T   T
  5.4458757268423801  3.1201671973175396  8.5649085274368009   T   T   T
