Pt Pd Ni Co Fe 
 1.0000000000000000
     8.9737360000000006   -5.1895480000000003    0.0044630000000000
    -0.0247690000000000   10.3424999999999994   -0.0160880000000000
     0.0218050000000000   -0.0357650000000000   22.9062790000000014
 Pt  Pd  Ni  Co  Fe 
  14  18  16  14  18
Selective dynamics
Cartesian
  4.6430914618812906  7.0577733422695994  6.5103895302164210   T   T   T
  3.8434341685613003  3.1618471165721593  4.1720377703352609   F   F   F
  2.3877689858130799  8.4716553920534086  6.4425397522083800   T   T   T
  1.6696388801655802  1.9542309446795794 10.8063867747213695   T   T   T
  6.1347626834195008  2.0205530373499396 10.7915778652643706   T   T   T
  6.8476234310867907  0.6308853254515692  6.5146788417292703   T   T   T
  8.3893042481001014  0.6189827366325290  4.2914068217444701   F   F   F
  7.5941178089244206  2.0238410498887092  2.1339270430715800   F   F   F
  3.8727910700005403  0.5875127143447396 10.8280388643385006   T   T   T
  8.3828217014835804 -1.9112698004412696 10.8024319634082904   T   T   T
  7.6607070716971615 -3.2412730622589008  8.5068889956235108   T   T   T
  1.7458904090715102  4.6680661809212696 10.9100210505249215   T   T   T
  0.0972820042087300  9.8537672025448710  6.4222187367388601   T   T   T
  3.1677452801916601  1.8802977295535295  8.4608007715995299   T   T   T
  3.0879940167717903  7.2065646842525091  2.0383573738187999   F   F   F
  5.3597095994585109 -1.9169044088631704  8.7190029802808713   T   T   T
  5.2911096639882409  0.6145995532517596  2.1562708040735301   F   F   F
  0.1999729494883900  4.4424448782602894  6.4764862548071207   T   T   T
  7.6274873027454309 -0.7448354201928007  2.1230267904965299   F   F   F
  0.1531315506862900  7.1374967128835394  6.4899891069312305   T   T   T
  3.1871940145442599  4.5604397169023896  8.5376988541141703   T   T   T
  6.7904356100819108  3.2952842145403793  6.5094449643271908   T   T   T
  4.6146050983126008 -0.5640851992241702  6.4648917825607510   T   T   T
  6.2336876798260006  4.5046113786599404  4.2346264934421400   F   F   F
  5.4439638787326610  5.8790764767157597  2.0884195399175400   F   F   F
  8.3257108699996998 -4.6714446345030902 10.8461347466537301   T   T   T
  3.8796880743561704  5.8898649734904707  4.2374955943543302   F   F   F
  0.8646916392643901  5.8223508866384899  8.6700380407104909   T   T   T
  6.1148713682722100 -0.6696923253645404 10.9587391418724209   T   T   T
  6.2200378730155998 -3.1225489654787699  4.2300273507578501   F   F   F
  0.8529609297559700  8.4971512541421585  8.6822329174177799   T   T   T
  1.6082730148560105  7.2612302910314996  4.1956368765854002   F   F   F
  6.1247579379391199  1.9315150185415597  4.2653890679709203   F   F   F
  4.5736124764822303  4.5145501646945592  6.4168770087600704   T   T   T
  1.6641556239939999 -0.6859255250812001 10.7673727917899207   T   T   T
  0.8463777091582401  0.6792340854452498  2.1292028348511503   F   F   F
  0.9306298231114501  5.7488227154250291  2.0877640377489102   F   F   F
  8.4015468280473709  3.2784073946180290  4.2870843177435898   F   F   F
  3.0827689248922399 -0.6059266449472802  2.1983222187270202   F   F   F
  7.5456061134776498  1.9409696918895396  8.6675718250116400   T   T   T
  6.9387519066231604 -1.9644637605887101  6.3735845295701701   T   T   T
  0.9118231433485600  3.1908458142607001  8.5602790064219096   T   T   T
  8.4531191738295224 -4.5097434252340207  4.2377395114023502   F   F   F
  0.8776715024073801  8.5643067950056189  2.0710513739012701   F   F   F
  4.5916462757467293  2.0051027143764495  6.3654568901272999   T   T   T
  6.0388583610091198  4.5396144992753795 10.6628868763123599   T   T   T
  5.3828954927363206  3.2355255244902792  8.6004071673533211   T   T   T
  3.0882547780026703  4.5345061658782804  2.1293810800148800   F   F   F
  6.0766268597464803 -0.5923327127837904  4.3040505004969196   F   F   F
  8.4295208958921197  3.1123231037380998 10.7230429400402318   T   T   T
  1.5906127408713102  1.9122433164412398  4.1969607746667004   F   F   F
  8.5164697856478497 -1.9732379051797901  4.2869801096066702   F   F   F
  3.1238105078962901  7.1721949844947002  8.7073867255040209   T   T   T
  7.5325322619760806  4.5072514231287588  8.6437051342640903   T   T   T
  5.3168120926736808  3.2260550955950298  2.0916868788170602   F   F   F
  3.9823066532209506  5.8657172474006289 10.6746864070839997   T   T   T
  3.9215052421491103 -1.7871002893979799  4.2926539765271201   F   F   F
  6.0571214721398512 -3.3645370789204501 10.7269894910953703   T   T   T
  7.5891637910242906 -0.5948156754571807  8.6797190398965505   T   T   T
  3.9504352683624302  3.3472649597288395 10.7236819282074212   T   T   T
  1.6928275582371703  7.1722491025100892 10.7043128422867202   T   T   T
  3.0754867689479299  1.9173441830332891  2.1953668739203005   F   F   F
  3.1079980471382003 -0.6740798196477602  8.6833776880245406   T   T   T
  6.8572008482888904  5.8624609287148797  6.4256403444894303   T   T   T
  2.3639205766169500  0.7807944264520097  6.3097508708308006   T   T   T
  1.5994919073465401 -0.5134685879653502  4.2105758266193805   F   F   F
  2.4166723209721801  5.7699567324273193  6.3829313981982105   T   T   T
  7.7017892410897302  4.5144821194164182  2.1137676487933299   F   F   F
  3.7850618473939903 -2.0393107611764698 10.7805818785841012   T   T   T
  2.4115486807163697  3.1830762521920994  6.4004237352995004   T   T   T
  3.8579979893453600  0.5836011763921797  4.2781421126485597   F   F   F
  8.3839732411139707  0.7233440031804388 10.7946623218988993   T   T   T
  0.9359308477885201  3.2168383822531799  2.1969178725793101   F   F   F
  5.3400357891770209 -1.9041534564875500  2.0917558592520802   F   F   F
  7.7822544619495302 -3.2591774852262301  2.1367210330127300   F   F   F
  1.5930269966858701  4.5044938514067798  4.2208811355935802   F   F   F
  0.8799408429451601  0.7131199639168000  8.6370529796820197   T   T   T
  5.4658004778135014  0.6974208480748392  8.6625372859997007   T   T   T
  5.4159667465244592  5.7528250501826497  8.6506138928723910   T   T   T
  0.1418506542789000  1.9997410922039098  6.3425156001863598   T   T   T
