Pt Pd Ni Co Fe 
 1.0000000000000000
     8.9845959999999998   -5.1242000000000001    0.0030630000000000
     0.0408230000000000   10.3251139999999992    0.0249720000000000
     0.0492080000000000    0.0155290000000000   22.9187680000000000
 Pt  Pd  Ni  Co  Fe 
  18  15  16  18  13
Selective dynamics
Cartesian
  5.4273508518571196 -1.9012732539874400  2.1782117767005200   F   F   F
  3.8833250166461801  3.4027581934278195  4.2762556817516000   F   F   F
  1.7386210537502100  7.0303172112228900 10.8026482824474606   T   T   T
  1.7027588078058900  2.0209540341385996 10.8310425877349203   T   T   T
  8.3854374242610685 -4.3955416233235303 10.7871114206639600   T   T   T
  1.7803831109284698  7.1856695356520497  4.2553052928978703   F   F   F
  1.7168252910730402 -0.6108403579016600 10.8050689688932007   T   T   T
  7.7192408483120891  4.6392612543394796  8.4946727069922812   T   T   T
  3.1478756065627995  4.6327486193328991  8.6668236887313395   T   T   T
  8.4384041033020907  0.7852181131407000  4.2893374399929396   F   F   F
  3.9620710213887800  3.2971606618345399 10.8622161534349502   T   T   T
  5.4110598137931500  3.2044316461180289  8.4413459282405796   T   T   T
  6.2341156218776499  4.6111472238693487  4.1963999681219901   F   F   F
  5.4382739418824304  6.0122346033711693  8.4894881437303589   T   T   T
  6.1741000051048101  4.6082008090717501 10.8368978797320814   T   T   T
  2.4811578092971502  5.9174453898846293  6.4670280836042995   T   T   T
  2.6153118247505396  8.5616761571891473  6.4327455864417198   T   T   T
  2.4485744380788597  3.2513353240135796  6.4673674806167396   T   T   T
  8.3954226076896195 -1.8800229100641808  4.1710921573020094   F   F   F
  3.9114905133375397  0.6668697328076396  4.1844074991859905   F   F   F
  0.2065731423070200  9.7265859549359881  6.3120154278850302   T   T   T
  3.1216574854411396  1.9732329227822096  2.0391417613792999   F   F   F
  1.0174891793267400  8.3991814782567076  8.5548654314211507   T   T   T
  8.4232093181167507  3.2171553435560201 10.9104366709378695   T   T   T
  1.6262313930414400  1.9736234781702400  4.2031156268142604   F   F   F
  4.0308153843064396  0.6809819383873494 10.7476332786475091   T   T   T
  7.6855190093784902  2.0609142460666692  2.0855956923989498   F   F   F
  0.0841376525821700  1.9991917255073297  6.4136279678842198   T   T   T
  4.0327608788743499 -1.9367759255401800 10.8257584267511096   T   T   T
  8.3506227499681582 -1.7406493685925901 10.9095495466145813   T   T   T
  7.6789651894840389  1.8784152802757392  8.5159259329380799   T   T   T
  6.1840903484423491 -0.5711552187237201  4.2824337628973694   F   F   F
  0.8270106644856100  3.2858709899313299  8.6182219432678604   T   T   T
  1.6774045465190399  4.6150921202955395  4.2914656412229499   F   F   F
  0.9815582176356199  8.4398748866213893  2.0907225257970299   F   F   F
  0.8477259483008200  0.6156873389450298  2.1413676794926699   F   F   F
  0.9366252198471899  5.8410479938814301  2.1446898465629500   F   F   F
  5.4229691406478899  3.3389451642838002  2.1154470532458602   F   F   F
  6.1849458062971703 -3.1349612449394502 10.6541166641378098   T   T   T
  3.9886492620382303  5.9279847481491394  4.2204754436328296   F   F   F
  5.4185217053391099  5.8235996678036495  2.1424319921864101   F   F   F
  8.4896504207250505  3.3908473590656696  4.1867069269919899   F   F   F
  7.6036327962961696 -3.0849638063861602  8.5176258139114900   T   T   T
  3.0813433530413299 -0.6890689979561900  2.1263499722763699   F   F   F
  7.7104444732703801  4.6370266712976891  2.1044915900401300   F   F   F
  6.1774784860815499  2.0278107190102994  4.2589096077521402   F   F   F
  3.1814201005970504  1.9155265906393395  8.5416382076288286   T   T   T
  6.9146066555330403  3.2732456088490895  6.3322411518802095   T   T   T
  0.1484457561127100  7.1303080106061696  6.4167278413460496   T   T   T
  3.1225835606673198  4.6022222960767900  2.1530378991604602   F   F   F
  1.6707165787048199  4.5874145689991099 10.7656117991237412   T   T   T
  4.7411187209273091  1.8893094808831603  6.3817884548485999   T   T   T
  6.1555115362157098 -3.1590342183761502  4.2829778772476503   F   F   F
  3.2199311008834095 -0.5406549074943700  8.5550846798431799   T   T   T
  0.0183988255443300  4.6429040640458297  6.4946009350922802   T   T   T
  6.8751190142576695  5.9438864366103497  6.3654612810372697   T   T   T
  5.3700043154156898 -1.7691742665313503  8.5245892263798204   T   T   T
  3.9622039437736096  5.8601357746500300 10.7282976410981910   T   T   T
  5.4808994195304503  0.7377685083072996  2.1229797396202001   F   F   F
  5.3442683495219701  0.6393691549692293  8.4982389533694604   T   T   T
  0.9198534161225900  3.3896038395039798  2.0806964656105800   F   F   F
  6.2602146237784195  1.8665867197994197 10.6541508500681292   T   T   T
  4.8018294812033098  7.2421231651041582  6.3775649114880304   T   T   T
  3.2812017656674994  7.2557009392163989  8.6398719226429108   T   T   T
  4.7545094277557185 -0.5238612032924300  6.4999269542148292   T   T   T
  7.7179484923051502 -0.5425344717376706  2.0606345765046199   F   F   F
  1.0101464374793800  0.6904643554800999  8.6035857472509001   T   T   T
  4.7904532021253496  4.6236871727631703  6.3605476764339599   T   T   T
  8.3751933050240286 -4.4561778505116605  4.1938313546536099   F   F   F
  3.1724986529358201  7.0842199060611586  2.1532353354835401   F   F   F
  8.4648439972478293  0.7165018485891986 10.7359677561977200   T   T   T
  0.9174661882562398  5.8347583569411796  8.5712999068875693   T   T   T
  2.4981064447228598  0.7305423267581599  6.5562840498910697   T   T   T
  6.1917056144226894 -0.5540692289247002 10.5712183064992491   T   T   T
  6.9122345062445900  0.7849104972749900  6.3658015908308698   T   T   T
  6.8144876623882409 -1.8866181548899104  6.4674601862696504   T   T   T
  1.6454964360616402 -0.6225326592805102  4.1446027933259497   F   F   F
  7.5946060908491093 -0.6506018563765997  8.5553933947253302   T   T   T
  3.9374316907507101 -1.8991419283436100  4.2686996531506702   F   F   F
  7.6248798194064591 -3.2469027659977794  2.1084940468022699   F   F   F
