Pt Pd Ni Co Fe 
 1.0000000000000000
     8.9376460000000009   -5.1802149999999996   -0.0567110000000000
     0.0080190000000000   10.3804099999999995    0.0354720000000000
    -0.0291720000000000    0.0284160000000000   22.9142790000000005
 Pt  Pd  Ni  Co  Fe 
  15  14  16  18  17
Selective dynamics
Cartesian
  8.3337268746521005 -4.4603555423417793  4.2339768847038197   F   F   F
  8.3290381235105109  3.3237469242296100 10.7943630879606900   T   T   T
  8.3037624843400710 -4.4852076036902302 10.7245144745052805   T   T   T
  7.5150046232724801 -3.1312375214939792  2.0980498511863401   F   F   F
  6.0316301113473108 -0.5322232713103294 10.7452193772161202   T   T   T
  3.0754595328558705 -0.5820503327077199  2.1562755907001199   F   F   F
  8.3582152009062014 -1.8851999187356201 10.7982431486842501   T   T   T
  0.9041336223934301  0.6568683052823899  8.4445991742831996   T   T   T
  3.9273453699899803 -1.8545485155058496  4.3268648994573997   F   F   F
  0.9140871782702301  3.3267060763969596  8.5874722999237694   T   T   T
  3.0489604039031906  7.1755530654999591  8.5303370018787206   T   T   T
  5.3090070211626310  3.3765251589960901  8.5621193397509394   T   T   T
  3.0972154659914999  4.5996237613363800  2.1633015101550299   F   F   F
  4.4884310623749197  1.9413285435765304  6.4963938686946507   T   T   T
  6.0464234651778703  1.9159320838844400  4.2336468130348299   F   F   F
  3.8200092680141098  3.3222409013672398  4.4021767363972204   F   F   F
  7.5820520248097800  1.9664305399865198  8.5909375535296597   T   T   T
  0.1516040340425700  4.5476247651465895  6.4228115170912803   T   T   T
  3.1286732139106999  7.1620609537549704  2.1560415944734999   F   F   F
  3.7994011946399202 -1.9244075067180095 10.7704395827185895   T   T   T
  8.3715917753599509  0.7169373424380104 10.8581502584626506   T   T   T
  6.8871940372054006  5.8746888640528399  6.4989080648692603   T   T   T
  0.2452072655405300  7.2066817953522193  6.5401990470968006   T   T   T
  3.1206311981968704  2.0113212636959203  2.1859074593928800   F   F   F
  8.3403830464390118  3.2959840666310591  4.2355448397718405   F   F   F
  7.5653767577320608  1.9814896606940708  2.0766831818404903   F   F   F
  1.6752585700066103  7.0852331542172298  4.3141000504033098   F   F   F
  4.6402298363276904  7.2185859946637390  6.4809277997564001   T   T   T
  6.7814859795396112  0.6039799146308302  6.4557669088677709   T   T   T
  1.7097988222989502  1.9903875992902096 10.7122953233855593   T   T   T
  0.8429652863222500  3.2863730311018498  2.2373418441625299   F   F   F
  0.8550881571027001  8.5107784425447406  2.1954772580292903   F   F   F
  6.0612152901787315 -3.2105130453558002 10.6458511154395303   T   T   T
  1.6199861855231301  7.1702214428885194 10.6824439813064007   T   T   T
  6.0644671755094004  4.6615249313744505  4.2731032725083500   F   F   F
  1.6104603492565601  2.0155014767399497  4.2743614646413901   F   F   F
  1.6451105320683503 -0.5717128873358200 10.6512527289294798   T   T   T
  8.3276161156057302  0.5908473487164200  4.2528420154919804   F   F   F
  3.8932470487637612  5.7924560067325093 10.6471703232479591   T   T   T
  3.1416008726017397 -0.5705043741018998  8.4850572729770306   T   T   T
  5.3808557733503495  5.8449328336539006  2.2188757205447498   F   F   F
  3.1292367987928600  4.6506185500629202  8.5198814925336688   T   T   T
  1.7231245843462701  4.5982270900195799 10.7212370135691799   T   T   T
  4.5457175811115009 -0.6062268856194898  6.4796890150600905   T   T   T
  0.8396330268446102  0.6684220169629300  2.1832717918296902   F   F   F
  5.2220841553675799  0.7108399406507599  8.6543882749247096   T   T   T
  3.1252501411038405  1.9865548746770301  8.6250508510960007   T   T   T
  2.3401614015697505  8.6235057139850895  6.4984670674915499   T   T   T
  0.1879544141156400  9.7640152206804700  6.4149555315463207   T   T   T
  5.9094503529523204  2.1111577175504097 10.7046546714753603   T   T   T
  7.4472601210756713 -0.7256740211629298  8.5677299652364702   T   T   T
  2.4884333823766305  5.7428875164517290  6.3705721778472109   T   T   T
  2.3151374992268603  0.6284344472207199  6.3177748965993201   T   T   T
  3.9947197799280403  5.8539135618287501  4.3385735311132603   F   F   F
  6.1661919151497706 -0.6532118325858697  4.1811007414913801   F   F   F
  1.6597606043087001 -0.5634314424072200  4.2860261932468697   F   F   F
  6.0926443675662112  4.6396877907024097 10.6369030071139310   T   T   T
  8.3103515294115518 -1.8278255804114898  4.2217286499977300   F   F   F
  5.4407113662266706  0.5646065408750003  2.1113094655619102   F   F   F
  0.8094628700080901  5.7946522599292507  2.2494773746334502   F   F   F
  6.0758083271593106 -3.2001473995073595  4.2338813288452402   F   F   F
  2.3462274945525099  3.3031329090617598  6.4926502812742601   T   T   T
  7.5717963263230210  4.6059177717961388  8.5801963923632112   T   T   T
  6.8562589888622494 -1.9228975974691096  6.3197723464951299   T   T   T
  3.8563337233254105  0.6571027791387798  4.2950415303689198   F   F   F
  1.5037864484755401  4.5139527300030107  4.2827992189484902   F   F   F
  0.8970966052886602  5.8345898996363701  8.7051856488321206   T   T   T
  3.7794357002856804  0.7191072187374398 10.5820865409684810   T   T   T
  0.2662976442015700  1.9867145442373697  6.3556631278883797   T   T   T
  5.3758568857964004 -1.8326344286098097  2.1546246160842801   F   F   F
  6.8750634148162710  3.3120574710740303  6.4164656735311700   T   T   T
  5.4170218548390210  5.9524169976052699  8.7033441631872197   T   T   T
  4.5538425019501112  4.6383003477514606  6.4173753522131003   T   T   T
  5.4105604284308404  3.3696859376349799  2.1574688794786501   F   F   F
  5.3714917991692603 -1.7833313556145098  8.5729289918324199   T   T   T
  7.5456081263647796  4.6318978636938999  2.1219130690947599   F   F   F
  0.8911456908550901  8.5496210301047189  8.6498087684530010   T   T   T
  7.5774450049801612 -3.1473460658939101  8.5782195683344007   T   T   T
  3.8053582072853307  3.3085806564684899 10.6283950972090402   T   T   T
  7.6477318939468413 -0.5608342282048002  2.1142275382097000   F   F   F
