Pt Pd Ni Co Fe 
 1.0000000000000000
     8.9737360000000006   -5.1895480000000003    0.0044630000000000
    -0.0247690000000000   10.3424999999999994   -0.0160880000000000
     0.0218050000000000   -0.0357650000000000   22.9062790000000014
 Pt  Pd  Ni  Co  Fe 
  14  18  16  14  18
Selective dynamics
Cartesian
  4.6430420289675212  7.0537243677702186  6.5131523882798508   T   T   T
  3.8434341685613003  3.1618471165721593  4.1720377703352609   F   F   F
  2.3964324259167102  8.4715296509854596  6.4442102168165203   T   T   T
  1.6669633001252000  1.9497046657028096 10.8052617261956208   T   T   T
  6.1368314024734705  2.0198058516043189 10.7940396987080405   T   T   T
  6.8505482700394102  0.6343497119592096  6.5136433234312499   T   T   T
  8.3893042481001014  0.6189827366325290  4.2914068217444701   F   F   F
  7.5941178089244206  2.0238410498887092  2.1339270430715800   F   F   F
  3.8672065164905001  0.5840008733195493 10.8275396649235809   T   T   T
  8.3805995091727912 -1.9086003402063707 10.8041966064816801   T   T   T
  7.6580169598603707 -3.2440644086753401  8.5081432716269401   T   T   T
  1.7482816884569101  4.6635101323913393 10.9092458472152405   T   T   T
  0.1008615849991800  9.8483938528988695  6.4199808477510105   T   T   T
  3.1699234119901303  1.8821582820381595  8.4595383009027110   T   T   T
  3.0879940167717903  7.2065646842525091  2.0383573738187999   F   F   F
  5.3536304886847903 -1.9187625015869803  8.7200503254415604   T   T   T
  5.2911096639882409  0.6145995532517596  2.1562708040735301   F   F   F
  0.2036668063350300  4.4370864957362803  6.4760077241834102   T   T   T
  7.6274873027454309 -0.7448354201928007  2.1230267904965299   F   F   F
  0.1544216951417800  7.1349384040827006  6.4876735423203806   T   T   T
  3.1836827499192899  4.5583278959602795  8.5380872348038501   T   T   T
  6.7890641666212206  3.2912811825193589  6.5037778736976009   T   T   T
  4.6090352704238295 -0.5690496382687601  6.4663327054028201   T   T   T
  6.2336876798260006  4.5046113786599404  4.2346264934421400   F   F   F
  5.4439638787326610  5.8790764767157597  2.0884195399175400   F   F   F
  8.3253459517297106 -4.6743611721642511 10.8360176273454005   T   T   T
  3.8796880743561704  5.8898649734904707  4.2374955943543302   F   F   F
  0.8631272936509800  5.8222264409485902  8.6724023295302413   T   T   T
  6.1125808057012003 -0.6738052216401208 10.9434831274382507   T   T   T
  6.2200378730155998 -3.1225489654787699  4.2300273507578501   F   F   F
  0.8545747705749301  8.4979258526059294  8.6821071390211202   T   T   T
  1.6082730148560105  7.2612302910314996  4.1956368765854002   F   F   F
  6.1247579379391199  1.9315150185415597  4.2653890679709203   F   F   F
  4.5750482427254404  4.5106811965037101  6.4186253876617005   T   T   T
  1.6650836841050500 -0.6840952610041501 10.7645546223344599   T   T   T
  0.8463777091582401  0.6792340854452498  2.1292028348511503   F   F   F
  0.9306298231114501  5.7488227154250291  2.0877640377489102   F   F   F
  8.4015468280473709  3.2784073946180290  4.2870843177435898   F   F   F
  3.0827689248922399 -0.6059266449472802  2.1983222187270202   F   F   F
  7.5437440306113706  1.9366874441283592  8.6628930833280204   T   T   T
  6.9459370019801501 -1.9665068037776408  6.3743876789431608   T   T   T
  0.9049545331627300  3.1913196348427295  8.5622896829799000   T   T   T
  8.4531191738295224 -4.5097434252340207  4.2377395114023502   F   F   F
  0.8776715024073801  8.5643067950056189  2.0710513739012701   F   F   F
  4.5905399984524404  2.0055338067402788  6.3718339888101001   T   T   T
  6.0394024771404107  4.5377047212541584 10.6597519340229603   T   T   T
  5.3825321360685505  3.2387688104457593  8.6025710276283895   T   T   T
  3.0882547780026703  4.5345061658782804  2.1293810800148800   F   F   F
  6.0766268597464803 -0.5923327127837904  4.3040505004969196   F   F   F
  8.4262583357021992  3.1080417667299591 10.7159999216240411   T   T   T
  1.5906127408713102  1.9122433164412398  4.1969607746667004   F   F   F
  8.5164697856478497 -1.9732379051797901  4.2869801096066702   F   F   F
  3.1223915037247303  7.1692465021736291  8.7062023656983207   T   T   T
  7.5320717209319499  4.5055438595229091  8.6328534013521008   T   T   T
  5.3168120926736808  3.2260550955950298  2.0916868788170602   F   F   F
  3.9787172378415496  5.8632314939779597 10.6723266534190913   T   T   T
  3.9215052421491103 -1.7871002893979799  4.2926539765271201   F   F   F
  6.0570155275756115 -3.3659727233975203 10.7331716406936408   T   T   T
  7.5872043898863204 -0.5992984650501504  8.6826636145375407   T   T   T
  3.9553509800235500  3.3472112887862795 10.7252312418190101   T   T   T
  1.6938874091445904  7.1679531359323994 10.7042396173914600   T   T   T
  3.0754867689479299  1.9173441830332891  2.1953668739203005   F   F   F
  3.1092757590879905 -0.6726960501906702  8.6813031508685405   T   T   T
  6.8587118611618001  5.8556716745371888  6.4249019566680996   T   T   T
  2.3675957313911806  0.7739069947908696  6.3182001410300801   T   T   T
  1.5994919073465401 -0.5134685879653502  4.2105758266193805   F   F   F
  2.4216738019927004  5.7681148007709986  6.3847024442486111   T   T   T
  7.7017892410897302  4.5144821194164182  2.1137676487933299   F   F   F
  3.7840734634573598 -2.0369167657638902 10.7711764584295402   T   T   T
  2.4105375389535104  3.1770040839193694  6.4021637015386101   T   T   T
  3.8579979893453600  0.5836011763921797  4.2781421126485597   F   F   F
  8.3863618016767401  0.7216845982334987 10.7886913717093105   T   T   T
  0.9359308477885201  3.2168383822531799  2.1969178725793101   F   F   F
  5.3400357891770209 -1.9041534564875500  2.0917558592520802   F   F   F
  7.7822544619495302 -3.2591774852262301  2.1367210330127300   F   F   F
  1.5930269966858701  4.5044938514067798  4.2208811355935802   F   F   F
  0.8871631391532000  0.7120890216651099  8.6251122599473611   T   T   T
  5.4615662350493208  0.7006413571657992  8.6585446294122796   T   T   T
  5.4136207127238407  5.7555482485885090  8.6515731190630607   T   T   T
  0.1427472316123300  2.0006175187300097  6.3442533741796803   T   T   T
