Pt Pd Ni Co Fe 
 1.0000000000000000
     9.0348150000000000   -5.1878500000000001   -0.0082870000000000
    -0.0577960000000000   10.2815770000000004   -0.0342180000000000
    -0.0094090000000000   -0.0583070000000000   22.9315239999999996
 Pt  Pd  Ni  Co  Fe 
  17  17  16  16  14
Selective dynamics
Cartesian
  4.6045870563152089  7.0816760024464305  6.4627787427658001   T   T   T
  2.2906518032083101  8.3789503440472810  6.3792607501583296   T   T   T
  3.8239752783414902  5.8870920654534213  4.1796454859345005   F   F   F
  8.3859637510690703 -1.9815607092418397  4.2504054727682599   F   F   F
  6.1976522591895309  1.8860033135724898 10.7123707680191487   T   T   T
  5.3417601958567298 -1.8742766868847598  2.2315170744380901   F   F   F
  1.5603865145790701  7.0801096419378604 10.8647706399387793   T   T   T
  3.8616395926708504  0.6129769943242004 10.8259485792684398   T   T   T
  0.1763991031614800  4.4983601686608905  6.4667218225648799   T   T   T
  3.8303538491239797  3.2111309604918401  4.1806483240697005   F   F   F
  4.6037953481763809  4.3670589243691404  6.5071266577767100   T   T   T
  5.3935619337661898 -1.9409824495045798  8.7195974323800893   T   T   T
  7.7144308625757603  2.0553405409815801  2.1166878407740000   F   F   F
  6.9561918459537795  5.7215290851638896  6.5149672468610405   T   T   T
  0.9549652661722100  5.8279637339213304  2.0495320194363402   F   F   F
  8.5061127848411608 -4.5936905434795205  4.2084181779746697   F   F   F
  0.8521365068076699  0.7123680667272601  8.6349595500046394   T   T   T
  3.0130707060930204  1.8846078006032601  2.0489648081850600   F   F   F
  6.9234283247828996 -1.9121340678500995  6.5140550401776203   T   T   T
  3.8299001718795500  5.6196454598157999 10.8125372543532396   T   T   T
  7.6700937781329408 -0.6443774681683297  2.1284115150151899   F   F   F
  3.1198334081595904 -0.6416173411225801  8.6409378979583700   T   T   T
  3.8704313055416901  0.5406607942746700  4.2460580712174405   F   F   F
  6.9218072151088901  3.0782067018628205  6.4412932479573692   T   T   T
  0.9292645814465299  5.8279516846378412  8.6416453645383591   T   T   T
  8.4002501328315304  0.6999976181998903  4.3223185989599395   F   F   F
  2.3824263034625406  0.7275151485996701  6.4177285146477594   T   T   T
  8.4571340340011609 -4.6122325603413694 10.9029902444526599   T   T   T
  5.4135491881258497  5.8045102062469507  2.0249934280727899   F   F   F
  6.1836377157977802  4.4653066085956405  4.2197673472265400   F   F   F
  6.1854785200952298 -3.2542378452501097 10.9105235964665805   T   T   T
  2.3620944338223699  5.7840725058501103  6.4102537201468408   T   T   T
  5.3783086565193203  3.2087141688729601  2.0195530144979901   F   F   F
  7.6632447099169108 -0.6194022228008196  8.7056177602653406   T   T   T
  1.6495142719320199 -0.6720939292419901  4.2427020483958602   F   F   F
  0.9206866733889000  8.4574018685521004  2.0792267786469401   F   F   F
  8.4953478535721008  3.1963075534456000  4.2684233849435795   F   F   F
  8.3755678226412105  0.5616300215671303 10.8168966348483195   T   T   T
  5.3847502469268598  0.6350913278920304  2.1369248363284901   F   F   F
  3.0419857766422003  7.1774459294310002  2.0790778569808896   F   F   F
  7.7322861009001196  4.5563589669944609  1.9888086998149499   F   F   F
  6.8582062173283003  0.6351522310956000  6.4535348197726190   T   T   T
  8.3894439584601077  3.1062422567587809 10.6465447120182386   T   T   T
  3.8947391445540398 -1.9288468570065298  4.3320373152628395   F   F   F
  6.1469776693832205  1.8416134760028604  4.2500179884952596   F   F   F
  7.6005141005808605  4.4066483868293309  8.6751723351450707   T   T   T
  6.1211557056396195 -0.7005982898245897  4.4206661391918693   F   F   F
  0.8906570835045601  0.6256791597498300  2.0793729537431100   F   F   F
  0.1934254167458600  1.9326816300138800  6.4272779746513500   T   T   T
  8.4448917536163908 -1.9780965250040798 10.7271980221610299   T   T   T
  0.0679698155094300  7.1257245610091910  6.4603506291087003   T   T   T
  3.1239877744683899  4.5492304115447197  1.9659857730685597   F   F   F
  0.8885769102528900  3.2106242961704199  2.0994919287167799   F   F   F
  1.6341104502813097 -0.6910936937134200 10.7151076863200601   T   T   T
  3.2109202885202497  2.0730069704768002  8.5983638635657798   T   T   T
  1.6028032878885099  7.1660965421379306  4.2033323918114096   F   F   F
  5.3637155218570802  5.6578353752120405  8.6328535542169398   T   T   T
  1.6074005403529301  1.9284635342836900  4.2163495196929004   F   F   F
  6.1525096991528212 -0.6602020051494900 10.7670349828722696   T   T   T
  2.3378034890069204  3.1839429477044101  6.4083565850639799   T   T   T
  0.9935402067039799  3.2488880369774402  8.6385202405161596   T   T   T
  7.6546249820068306  1.9692835737974406  8.5920427407129800   T   T   T
  4.6719159857095889  1.8120234729937703  6.5159189371067292   T   T   T
  5.3599748883488605  0.7300460237554800  8.4975858200168588   T   T   T
  1.6124767784393501  4.4699709529254505  4.1552772139421403   F   F   F
  0.7232771234151200  8.3872253544083613  8.5890157929202395   T   T   T
  3.8499557894590200 -1.9484883494648899 10.8107694438345696   T   T   T
  4.7070834208692496 -0.5826343827889000  6.4400944775013595   T   T   T
  3.0884936185949003 -0.6639246783699999  2.1129912140466800   F   F   F
  7.7773238895991099 -3.2655852651236201  2.0687029635728997   F   F   F
  3.1487253922061398  7.0295275727679707  8.6952837798979097   T   T   T
  3.8222814144089798  3.1028200296461397 10.6957645896704800   T   T   T
  1.4839533821076598  4.4056175621580804 10.7242851059808295   T   T   T
  1.6266909017562199  1.9841605191481102 10.7612553181110098   T   T   T
  7.6665747698452504 -3.2811140406386499  8.6961134585646089   T   T   T
  3.1251161319958305  4.3452254483291899  8.5926077082679804   T   T   T
  6.1386309054624002 -3.1809642628565000  4.4083608787354303   F   F   F
  6.1257696142832296  4.4291652750031405 10.6321503938828297   T   T   T
  0.1066657053597100  9.6091112153638800  6.4438463584889698   T   T   T
  5.4123412980660808  3.1269509973419392  8.5884073818251299   T   T   T
