Pt Pd Ni Co Fe 
 1.0000000000000000
     8.9737360000000006   -5.1895480000000003    0.0044630000000000
    -0.0247690000000000   10.3424999999999994   -0.0160880000000000
     0.0218050000000000   -0.0357650000000000   22.9062790000000014
 Pt  Pd  Ni  Co  Fe 
  14  18  16  14  18
Selective dynamics
Cartesian
  4.6567766314552603  7.0220622941798787  6.4429230245943199   T   T   T
  3.8434341685613003  3.1618471165721593  4.1720377703352609   F   F   F
  2.4466307337429605  8.4675366596093991  6.4114490052751112   T   T   T
  1.6475950723552502  1.9161456857868000 10.8137743902500301   T   T   T
  6.1570573010461107  2.0029822683854199 10.7995327853631515   T   T   T
  6.8687635603791293  0.6482316077944393  6.5332699883327914   T   T   T
  8.3893042481001014  0.6189827366325290  4.2914068217444701   F   F   F
  7.5941178089244206  2.0238410498887092  2.1339270430715800   F   F   F
  3.8678474941975605  0.5914014001569998 10.8682146245872708   T   T   T
  8.3631838961202707 -1.9473370309161604 10.8623364812322905   T   T   T
  7.6464211634608112 -3.2644807448244704  8.5303797529771597   T   T   T
  1.7101764703194404  4.6354860605124095 10.8469918459479597   T   T   T
  0.1384622620759700  9.8562435681059188  6.3692920003418303   T   T   T
  3.1384537704767901  1.9095823287096898  8.4449983384102207   T   T   T
  3.0879940167717903  7.2065646842525091  2.0383573738187999   F   F   F
  5.3463439145552103 -1.9331698385684304  8.6651147009223415   T   T   T
  5.2911096639882409  0.6145995532517596  2.1562708040735301   F   F   F
  0.1904818587190500  4.3950203552922487  6.4579173041650604   T   T   T
  7.6274873027454309 -0.7448354201928007  2.1230267904965299   F   F   F
  0.1784384770450300  7.1065429303188692  6.4702679480345608   T   T   T
  3.1761574760763502  4.5578954895992592  8.5436924288933707   T   T   T
  6.7495979450115007  3.2472863636237399  6.4758218124472409   T   T   T
  4.6128419588909004 -0.5764492610484002  6.4274433261792909   T   T   T
  6.2336876798260006  4.5046113786599404  4.2346264934421400   F   F   F
  5.4439638787326610  5.8790764767157597  2.0884195399175400   F   F   F
  8.3284870569664005 -4.6813077087284203 10.7818935631916411   T   T   T
  3.8796880743561704  5.8898649734904707  4.2374955943543302   F   F   F
  0.8418171672839301  5.8172154006905696  8.6408104028166317   T   T   T
  6.1263835055052915 -0.6536978695999807 10.8849323011560504   T   T   T
  6.2200378730155998 -3.1225489654787699  4.2300273507578501   F   F   F
  0.8649357365791100  8.4905353015000813  8.6950054093504612   T   T   T
  1.6082730148560105  7.2612302910314996  4.1956368765854002   F   F   F
  6.1247579379391199  1.9315150185415597  4.2653890679709203   F   F   F
  4.6329210955001798  4.5149530776762790  6.4517954920902003   T   T   T
  1.6742025350869001 -0.6883865850155102 10.7679935636270319   T   T   T
  0.8463777091582401  0.6792340854452498  2.1292028348511503   F   F   F
  0.9306298231114501  5.7488227154250291  2.0877640377489102   F   F   F
  8.4015468280473709  3.2784073946180290  4.2870843177435898   F   F   F
  3.0827689248922399 -0.6059266449472802  2.1983222187270202   F   F   F
  7.5436071299681720  1.9622628428730191  8.6650088071115494   T   T   T
  6.9522784700413096 -1.9800818358002008  6.4084485800007398   T   T   T
  0.8532856420101000  3.1860439515713597  8.5497892259670696   T   T   T
  8.4531191738295224 -4.5097434252340207  4.2377395114023502   F   F   F
  0.8776715024073801  8.5643067950056189  2.0710513739012701   F   F   F
  4.5705225930913000  1.9746555586112997  6.4080732554761601   T   T   T
  6.0892807881400097  4.4805426861857587 10.6653696215698197   T   T   T
  5.4108354378265204  3.2628207554862096  8.6277325609786910   T   T   T
  3.0882547780026703  4.5345061658782804  2.1293810800148800   F   F   F
  6.0766268597464803 -0.5923327127837904  4.3040505004969196   F   F   F
  8.3628788051617615  3.1753514493125889 10.6962829412618614   T   T   T
  1.5906127408713102  1.9122433164412398  4.1969607746667004   F   F   F
  8.5164697856478497 -1.9732379051797901  4.2869801096066702   F   F   F
  3.1247944072488303  7.1297797948418085  8.6273916307608793   T   T   T
  7.5264157726467014  4.5200584502000591  8.5475552470840608   T   T   T
  5.3168120926736808  3.2260550955950298  2.0916868788170602   F   F   F
  4.0376096170179103  5.8919400197243892 10.6782434174813119   T   T   T
  3.9215052421491103 -1.7871002893979799  4.2926539765271201   F   F   F
  6.0537237720233401 -3.2739092224940802 10.8148168307189003   T   T   T
  7.5793844858913308 -0.6235044596548701  8.6256321889129595   T   T   T
  3.9617415965648606  3.2791962330906093 10.7363696097222707   T   T   T
  1.7047928782438901  7.1743996564419392 10.7949874706798905   T   T   T
  3.0754867689479299  1.9173441830332891  2.1953668739203005   F   F   F
  3.1019994228378804 -0.6789443886028003  8.6453789067388502   T   T   T
  6.8882152459789099  5.8695587379570693  6.4208919362624597   T   T   T
  2.4059387508755701  0.7676033008327898  6.3624795854072005   T   T   T
  1.5994919073465401 -0.5134685879653502  4.2105758266193805   F   F   F
  2.4202672779399799  5.8014786587183096  6.4033748635231404   T   T   T
  7.7017892410897302  4.5144821194164182  2.1137676487933299   F   F   F
  3.8248537627572001 -1.9918616760143100 10.7725957608109706   T   T   T
  2.3867374664370300  3.1577644998769592  6.4033167059284102   T   T   T
  3.8579979893453600  0.5836011763921797  4.2781421126485597   F   F   F
  8.3543799684542712  0.6460732653596288 10.7824235437612916   T   T   T
  0.9359308477885201  3.2168383822531799  2.1969178725793101   F   F   F
  5.3400357891770209 -1.9041534564875500  2.0917558592520802   F   F   F
  7.7822544619495302 -3.2591774852262301  2.1367210330127300   F   F   F
  1.5930269966858701  4.5044938514067798  4.2208811355935802   F   F   F
  0.8965813114510001  0.7152335343574799  8.5472487250472700   T   T   T
  5.4391655427364798  0.6822286408649495  8.6223549598013509   T   T   T
  5.3653902098909994  5.7478949450013799  8.6498234982205897   T   T   T
  0.1118923671184400  2.0016209048627998  6.3487760807778004   T   T   T
