Pt Pd Ni Co Fe 
 1.0000000000000000
     9.0348150000000000   -5.1878500000000001   -0.0082870000000000
    -0.0577960000000000   10.2815770000000004   -0.0342180000000000
    -0.0094090000000000   -0.0583070000000000   22.9315239999999996
 Pt  Pd  Ni  Co  Fe 
  17  17  16  16  14
Selective dynamics
Cartesian
  4.6001889394142994  7.0850019649622000  6.4860441353478793   T   T   T
  2.2661747713004599  8.3808472429214795  6.3856687199886304   T   T   T
  3.8239752783414902  5.8870920654534213  4.1796454859345005   F   F   F
  8.3859637510690703 -1.9815607092418397  4.2504054727682599   F   F   F
  6.1798904541912503  1.9180241563420006 10.7154492540576509   T   T   T
  5.3417601958567298 -1.8742766868847598  2.2315170744380901   F   F   F
  1.5619776495811299  7.1079841225615903 10.8572278059908296   T   T   T
  3.8582077039587701  0.6352616156072601 10.8229483602605097   T   T   T
  0.1663843438589700  4.4871554349845102  6.4631097559104003   T   T   T
  3.8303538491239797  3.2111309604918401  4.1806483240697005   F   F   F
  4.6002054329025892  4.3636752103488705  6.5129007055677395   T   T   T
  5.4036205794782406 -1.9683975145526802  8.7547968276992396   T   T   T
  7.7144308625757603  2.0553405409815801  2.1166878407740000   F   F   F
  6.9450604565754901  5.7147363276351708  6.5359080643859997   T   T   T
  0.9549652661722100  5.8279637339213304  2.0495320194363402   F   F   F
  8.5061127848411608 -4.5936905434795205  4.2084181779746697   F   F   F
  0.8273452783336800  0.7125467857269401  8.6184955966689003   T   T   T
  3.0130707060930204  1.8846078006032601  2.0489648081850600   F   F   F
  6.9228112761931397 -1.9233684519650298  6.5259803411370090   T   T   T
  3.8236383765385002  5.6168818285439501 10.8399965215934699   T   T   T
  7.6700937781329408 -0.6443774681683297  2.1284115150151899   F   F   F
  3.1296286440374601 -0.6344724539685200  8.6392688674395295   T   T   T
  3.8704313055416901  0.5406607942746700  4.2460580712174405   F   F   F
  6.9239105666325198  3.0679229387603595  6.4360208693668204   T   T   T
  0.9116093231470200  5.8283061437982600  8.6466327594849091   T   T   T
  8.4002501328315304  0.6999976181998903  4.3223185989599395   F   F   F
  2.3833081436353898  0.7304678199023700  6.4174235352513493   T   T   T
  8.4848871341236318 -4.5781078806576598 10.9519421455473793   T   T   T
  5.4135491881258497  5.8045102062469507  2.0249934280727899   F   F   F
  6.1836377157977802  4.4653066085956405  4.2197673472265400   F   F   F
  6.1757918913737102 -3.2574200903924702 10.9820989015060100   T   T   T
  2.3510603910515697  5.7756982328723607  6.4271205300523295   T   T   T
  5.3783086565193203  3.2087141688729601  2.0195530144979901   F   F   F
  7.6729032012301799 -0.6229979837904104  8.7130754617537391   T   T   T
  1.6495142719320199 -0.6720939292419901  4.2427020483958602   F   F   F
  0.9206866733889000  8.4574018685521004  2.0792267786469401   F   F   F
  8.4953478535721008  3.1963075534456000  4.2684233849435795   F   F   F
  8.3785355716237397  0.5867494040797711 10.8135718176019093   T   T   T
  5.3847502469268598  0.6350913278920304  2.1369248363284901   F   F   F
  3.0419857766422003  7.1774459294310002  2.0790778569808896   F   F   F
  7.7322861009001196  4.5563589669944609  1.9888086998149499   F   F   F
  6.8548147844095588  0.6243325049366307  6.4621284964547403   T   T   T
  8.4140018236809713  3.1208468340875108 10.6185316399011995   T   T   T
  3.8947391445540398 -1.9288468570065298  4.3320373152628395   F   F   F
  6.1469776693832205  1.8416134760028604  4.2500179884952596   F   F   F
  7.6141213661739799  4.4215870343616395  8.6847527541201792   T   T   T
  6.1211557056396195 -0.7005982898245897  4.4206661391918693   F   F   F
  0.8906570835045601  0.6256791597498300  2.0793729537431100   F   F   F
  0.1841756450194900  1.9222472545472700  6.4171683923752108   T   T   T
  8.4379235257713283 -1.9672605935945096 10.7241656331461108   T   T   T
  0.0663550567829000  7.1291635893703003  6.4743077271281599   T   T   T
  3.1239877744683899  4.5492304115447197  1.9659857730685597   F   F   F
  0.8885769102528900  3.2106242961704199  2.0994919287167799   F   F   F
  1.6350531568871201 -0.6844491940364400 10.6924539535779601   T   T   T
  3.2323279446614195  2.0505049099273602  8.5689027025812994   T   T   T
  1.6028032878885099  7.1660965421379306  4.2033323918114096   F   F   F
  5.3404279143595001  5.6651428153995003  8.6881793535939007   T   T   T
  1.6074005403529301  1.9284635342836900  4.2163495196929004   F   F   F
  6.1518029806914498 -0.6465264579814001 10.7945365662189499   T   T   T
  2.3469212321660704  3.1808976465475602  6.3925221977168993   T   T   T
  0.9845442677917601  3.2274343814689801  8.5814100995898901   T   T   T
  7.6581168002976296  1.9446390170960903  8.5818670170609295   T   T   T
  4.6752683511238802  1.8106499367895899  6.5202854124298302   T   T   T
  5.3886973721797498  0.7117356500065002  8.5131611321897491   T   T   T
  1.6124767784393501  4.4699709529254505  4.1552772139421403   F   F   F
  0.7244647012686400  8.3851994642779690  8.5437218499015106   T   T   T
  3.8532026406737803 -1.9368696262867600 10.8824686071572998   T   T   T
  4.7050082842484304 -0.6035826617062598  6.4552695333580301   T   T   T
  3.0884936185949003 -0.6639246783699999  2.1129912140466800   F   F   F
  7.7773238895991099 -3.2655852651236201  2.0687029635728997   F   F   F
  3.1412175769506701  7.0435733896686106  8.7408737473260487   T   T   T
  3.8139861780317101  3.1237345382904804 10.6749247706311809   T   T   T
  1.4684474778428602  4.4303225042819303 10.7042265439513287   T   T   T
  1.6271000498695900  1.9994953153798698 10.7095721326141398   T   T   T
  7.6465659556656105 -3.2965070444460696  8.7344933619793785   T   T   T
  3.1423998700727198  4.3686508836372600  8.5852244091748506   T   T   T
  6.1386309054624002 -3.1809642628565000  4.4083608787354303   F   F   F
  6.1571807458130294  4.4593037174329897 10.6171668128034007   T   T   T
  0.0984934942023700  9.5986362730843595  6.4299483550137397   T   T   T
  5.4504753196388203  3.1284485834683609  8.5675333178660793   T   T   T
