Pt Pd Ni Co Fe 
 1.0000000000000000
     8.9645670000000006   -5.0970750000000002   -0.0554420000000000
     0.0644260000000000   10.3118449999999999    0.0416760000000000
    -0.0230490000000000    0.0365270000000000   22.9434980000000017
 Pt  Pd  Ni  Co  Fe 
  15  16  18  14  17
Selective dynamics
Cartesian
  5.3870828187918800  5.9518448315948005  2.1903580643572802   F   F   F
  8.5269357331063595 -1.7793172799752999 10.7325996591221209   T   T   T
  6.1761296399419505 -3.1000416517433202 10.8177653848255400   T   T   T
  0.0759597457214500  2.0134492212967396  6.5362859058754212   T   T   T
  5.5352558714895208  5.8357558007834696  8.5571397597043202   T   T   T
  2.4759699953886805  3.3083207546318794  6.4296951418417212   T   T   T
  3.1108389734638497  4.5765727658316395  2.2200361440076199   F   F   F
  5.4736043491441704  3.2765891183954396  2.1412797793182201   F   F   F
  8.4879075030410114 -4.4312860366030309 10.7978581860804201   T   T   T
  3.2105594042714607  7.1503657546255601  8.6315698475078015   T   T   T
  1.7240972492627002  2.0090247608398597  4.2132858029558804   F   F   F
  8.3948903863178916  3.2125248473095698  4.2107817997867807   F   F   F
  8.3363933556863898 -4.4341334078142900  4.2143548522103407   F   F   F
  0.8737025617406101  8.3254457972259299  8.5086412462089811   T   T   T
  0.9423781601866900  0.6540802537764000  8.5569718889009003   T   T   T
  8.4003753079243211  3.2427924009114997 10.7360177206277605   T   T   T
  5.3198535968514600  0.7027058501848499  2.1030956998902401   F   F   F
  3.2577513149517001  1.9427669283680400  8.5195536976095205   T   T   T
  1.7003555606353100  7.0244057776992701 10.8708396974764216   T   T   T
  3.9026039697928501 -1.8056277636211802 10.8299580558697812   T   T   T
  8.4049067444106988 -1.7706763441735101  4.3305708301336807   F   F   F
  6.0981227216971394  4.5436031612650796 10.8476167180073606   T   T   T
  6.1027964217414796 -0.5341592115453601  4.3462863305578407   F   F   F
  4.7726674104514002  7.1858680845685399  6.4601920537774804   T   T   T
  2.3602145491558404  5.9017226518104495  6.4565003269442407   T   T   T
  6.0964402295890103  1.8773891860751601 10.7093077636725802   T   T   T
  5.5182782274942301  3.2049901794309492  8.4557181446962613   T   T   T
  7.6388748138537608 -3.0928996619441702  2.0820915662532800   F   F   F
  3.8907452164992300 -1.9529003018489701  4.2754445050562202   F   F   F
  1.7044892512269501 -0.6570281212761000  4.2506117364040605   F   F   F
  7.6604480056419799 -0.4703623935913703  2.1224154197492004   F   F   F
  3.2407762429802602 -0.6127713352822600  8.4653238580751609   T   T   T
  0.9436131066630500  3.2758924776550398  2.1555366363757802   F   F   F
  8.4218367784385801  0.6963048140580289 10.5508416488261219   T   T   T
  4.7583301934353512  4.5308931359273599  6.3739091858401800   T   T   T
  6.1169048187337811  4.5605297816928605  4.3095715048250405   F   F   F
  3.9000825506956098  5.8301186427116996  4.3561074636363006   F   F   F
  8.4479339068853321  0.7504322492784800  4.3213217414425804   F   F   F
  3.9080807237579300  5.7555216454506297 10.6946298197247014   T   T   T
  1.6820086118226902  7.0628998684053306  4.3576128834506207   F   F   F
  0.1729257995607200  9.6672738070322790  6.4623313354056000   T   T   T
  3.1728770019053703  4.5546419759905996  8.5988422978673409   T   T   T
  6.0966042464075896 -3.1676756101544696  4.2979834548116607   F   F   F
  3.1206443418142205  7.2933173037391104  2.1258434527795602   F   F   F
  1.7360423959046802 -0.5604764197093901 10.6538086892800798   T   T   T
  0.1152242709383800  7.0989623587626500  6.4408018630286410   T   T   T
  0.9476342752742800  0.6020212442032500  2.0803049053747200   F   F   F
  2.4356518484186500  8.5207579962413202  6.4884475291072210   T   T   T
  2.4721204030999000  0.6647747575406300  6.3820864655654006   T   T   T
  3.9110449744960003  0.7808161282998097  4.2608044967819607   F   F   F
  4.6136739516393295 -0.4453358601707702  6.4548654753808608   T   T   T
  0.0716536208688200  4.6229942820151697  6.5540773241013204   T   T   T
  1.8296315828130998  1.9589389690394599 10.6565140715595206   T   T   T
  7.7010855431732912  4.5798798383390791  8.4477814304064207   T   T   T
  0.9158135449183801  3.3468317062439299  8.6130200974958004   T   T   T
  6.9612666870247200  5.8058518429259092  6.4217372919272799   T   T   T
  3.8728978617702405  0.6238145358678900 10.5444669141868417   T   T   T
  1.7523865300216601  4.5309939565258492 10.5643154684300811   T   T   T
  6.1803538396750506 -0.5844903428988205 10.5219651902419411   T   T   T
  1.6838353074473402  4.6500639295675796  4.3384246163743603   F   F   F
  4.7861225004046100  1.9693342237334999  6.2537919533882205   T   T   T
  0.8766626106306901  5.7285650198056590  8.5995194661506194   T   T   T
  7.6690897861388896  1.8633736012628799  8.4517692067371417   T   T   T
  6.9798300722790900  3.3710858491032401  6.3871111613863008   T   T   T
  6.1475578831355504  1.9961974845924599  4.2959753701033803   F   F   F
  6.9585428293140010  0.7824819020815800  6.4485529424686803   T   T   T
  5.4352507304151594  0.5713718522087601  8.5013670445646401   T   T   T
  3.7687275654357903  3.2869347246884701 10.6613835697399821   T   T   T
  6.8358899403383298 -1.7593312791724203  6.4803929265255000   T   T   T
  7.7419376633189003  2.0091791796972998  2.0305414884455204   F   F   F
  0.9495897264283101  5.8730926849553207  2.2589322638409404   F   F   F
  3.9220389167086398  3.3200706070967394  4.2947413434796404   F   F   F
  7.7213838507497012 -0.5632381025776004  8.5790082640432406   T   T   T
  5.4414291078181600 -1.8281783273416103  8.6075432703236796   T   T   T
  5.3476260759139098 -1.8655597480013597  2.1358807246250202   F   F   F
  0.9082608755440802  8.3550907069620202  2.1285184107234403   F   F   F
  3.0772893685651601 -0.5668594718032401  2.0913831529290401   F   F   F
  7.6385696584717202 -3.1622185838533499  8.6326453680926409   T   T   T
  7.7483230520549302  4.6192245030598604  2.0849841662146202   F   F   F
  3.0990653512511206  1.9524236310853897  2.0779178670889604   F   F   F
