Pt Pd Ni Co Fe 
 1.0000000000000000
     9.0348150000000000   -5.1878500000000001   -0.0082870000000000
    -0.0577960000000000   10.2815770000000004   -0.0342180000000000
    -0.0094090000000000   -0.0583070000000000   22.9315239999999996
 Pt  Pd  Ni  Co  Fe 
  17  17  16  16  14
Selective dynamics
Cartesian
  4.6020774925126009  7.0765915051800503  6.5009616997824997   T   T   T
  2.2737698817335201  8.3805593037377104  6.3839142967447797   T   T   T
  3.8239752783414902  5.8870920654534213  4.1796454859345005   F   F   F
  8.3859637510690703 -1.9815607092418397  4.2504054727682599   F   F   F
  6.1922805827986904  1.9605752205521207 10.7142708545779595   T   T   T
  5.3417601958567298 -1.8742766868847598  2.2315170744380901   F   F   F
  1.5637957650146599  7.1315988660673302 10.8620998210300286   T   T   T
  3.8577520732250297  0.6850414311707399 10.7846351315251496   T   T   T
  0.1558262449837600  4.4917242874807801  6.4619347590608704   T   T   T
  3.8303538491239797  3.2111309604918401  4.1806483240697005   F   F   F
  4.5913726057458897  4.3542450495272202  6.5204980320956594   T   T   T
  5.4031782911227495 -1.9818034621190506  8.7911170225447695   T   T   T
  7.7144308625757603  2.0553405409815801  2.1166878407740000   F   F   F
  6.9439913401100606  5.7155162597767299  6.5399239901218991   T   T   T
  0.9549652661722100  5.8279637339213304  2.0495320194363402   F   F   F
  8.5061127848411608 -4.5936905434795205  4.2084181779746697   F   F   F
  0.8207955065618900  0.7011180092219201  8.6060275512359805   T   T   T
  3.0130707060930204  1.8846078006032601  2.0489648081850600   F   F   F
  6.9258974700459195 -1.9279371471781395  6.5386398962635495   T   T   T
  3.8372462897128696  5.6606950067062094 10.8854229044459494   T   T   T
  7.6700937781329408 -0.6443774681683297  2.1284115150151899   F   F   F
  3.1380594974501901 -0.6435862690754298  8.6410847024512805   T   T   T
  3.8704313055416901  0.5406607942746700  4.2460580712174405   F   F   F
  6.9207008704235609  3.0620088461213304  6.4337302522782096   T   T   T
  0.9162536163778500  5.8319542755366509  8.6416051479923599   T   T   T
  8.4002501328315304  0.6999976181998903  4.3223185989599395   F   F   F
  2.3817719918839200  0.7215307172979103  6.4116235980052805   T   T   T
  8.5070303844998794 -4.5389938228598101 10.9616780006214398   T   T   T
  5.4135491881258497  5.8045102062469507  2.0249934280727899   F   F   F
  6.1836377157977802  4.4653066085956405  4.2197673472265400   F   F   F
  6.1942507298732306 -3.2067299878193607 11.0538737387273791   T   T   T
  2.3472261204226399  5.7699048328879705  6.4258549348650105   T   T   T
  5.3783086565193203  3.2087141688729601  2.0195530144979901   F   F   F
  7.6789441977609902 -0.6328620173465296  8.7236234245915796   T   T   T
  1.6495142719320199 -0.6720939292419901  4.2427020483958602   F   F   F
  0.9206866733889000  8.4574018685521004  2.0792267786469401   F   F   F
  8.4953478535721008  3.1963075534456000  4.2684233849435795   F   F   F
  8.3764252344915118  0.6258413952600297 10.8018573708355685   T   T   T
  5.3847502469268598  0.6350913278920304  2.1369248363284901   F   F   F
  3.0419857766422003  7.1774459294310002  2.0790778569808896   F   F   F
  7.7322861009001196  4.5563589669944609  1.9888086998149499   F   F   F
  6.8590844462762606  0.6201479463343803  6.4645246323234300   T   T   T
  8.4201207225903083  3.1569033006148297 10.6165415426424090   T   T   T
  3.8947391445540398 -1.9288468570065298  4.3320373152628395   F   F   F
  6.1469776693832205  1.8416134760028604  4.2500179884952596   F   F   F
  7.6095498274695998  4.4145771818097499  8.6796027939685700   T   T   T
  6.1211557056396195 -0.7005982898245897  4.4206661391918693   F   F   F
  0.8906570835045601  0.6256791597498300  2.0793729537431100   F   F   F
  0.1783367858103900  1.9227409574060699  6.4120244535008197   T   T   T
  8.4397209962334596 -1.9321789072010198 10.7496742230373297   T   T   T
  0.0692972246440500  7.1304489701465501  6.4582885730156896   T   T   T
  3.1239877744683899  4.5492304115447197  1.9659857730685597   F   F   F
  0.8885769102528900  3.2106242961704199  2.0994919287167799   F   F   F
  1.6468531621767102 -0.6585820854041700 10.6939249454060885   T   T   T
  3.2470987052405800  2.0439368685296904  8.5206153455125300   T   T   T
  1.6028032878885099  7.1660965421379306  4.2033323918114096   F   F   F
  5.3310416170938302  5.6461773524844414  8.7110810084236299   T   T   T
  1.6074005403529301  1.9284635342836900  4.2163495196929004   F   F   F
  6.1522444851327096 -0.6056069229732699 10.8037904504826798   T   T   T
  2.3362757367144997  3.1793107110439500  6.3817616528701695   T   T   T
  0.9806606966614400  3.2224225963280202  8.5592828006932997   T   T   T
  7.6649193370018400  1.9440191264833204  8.5781154259084094   T   T   T
  4.6831106604951493  1.7978393627826501  6.5102432856418204   T   T   T
  5.3970039335571300  0.7064998651660902  8.5196494459620791   T   T   T
  1.6124767784393501  4.4699709529254505  4.1552772139421403   F   F   F
  0.7294045897931500  8.3846951632233999  8.5407993082936695   T   T   T
  3.8482980319443305 -1.8864438854420600 10.9060429801931793   T   T   T
  4.7079259034932699 -0.6084761391304899  6.4613872057645603   T   T   T
  3.0884936185949003 -0.6639246783699999  2.1129912140466800   F   F   F
  7.7773238895991099 -3.2655852651236201  2.0687029635728997   F   F   F
  3.1486825332131603  7.0350418590275297  8.7601050947136496   T   T   T
  3.8481053179793299  3.1833368045084902 10.6474857834493601   T   T   T
  1.4784532291342301  4.4654996156193905 10.7028110431330798   T   T   T
  1.6493149174290200  2.0642523524094596 10.6426817031659287   T   T   T
  7.6277325591441496 -3.3208861166692998  8.7682148856479998   T   T   T
  3.1190766117865301  4.3542705155735906  8.6087283741144098   T   T   T
  6.1386309054624002 -3.1809642628565000  4.4083608787354303   F   F   F
  6.1818650233592800  4.5045902850023909 10.6429512649787892   T   T   T
  0.1014703095408200  9.5963066473610610  6.4213470847117504   T   T   T
  5.4477559666767599  3.1229389324284802  8.5662826433265398   T   T   T
