Pt Pd Ni Co Fe 
 1.0000000000000000
     8.9737360000000006   -5.1895480000000003    0.0044630000000000
    -0.0247690000000000   10.3424999999999994   -0.0160880000000000
     0.0218050000000000   -0.0357650000000000   22.9062790000000014
 Pt  Pd  Ni  Co  Fe 
  14  18  16  14  18
Selective dynamics
Cartesian
  4.6498300033907096  7.0491124043391196  6.5055331804917005   T   T   T
  3.8434341685613003  3.1618471165721593  4.1720377703352609   F   F   F
  2.4079702922173905  8.4700485512343899  6.4478424067229509   T   T   T
  1.6517422725246502  1.9475464025387097 10.8000325609936709   T   T   T
  6.1400757710607508  2.0111029065495796 10.7948651092004315   T   T   T
  6.8625595456125001  0.6287093356204395  6.5112954818193911   T   T   T
  8.3893042481001014  0.6189827366325290  4.2914068217444701   F   F   F
  7.5941178089244206  2.0238410498887092  2.1339270430715800   F   F   F
  3.8740063685048702  0.5817548886572900 10.8353949688985907   T   T   T
  8.3711139737121023 -1.9273010968039603 10.8252416503781710   T   T   T
  7.6452684455502808 -3.2560034508769005  8.5192407783414410   T   T   T
  1.7631855540950501  4.6538036275417296 10.8844092494602620   T   T   T
  0.1040597043536900  9.8430470450447594  6.4165095704980004   T   T   T
  3.1708402122083306  1.8856967996742393  8.4903632961484412   T   T   T
  3.0879940167717903  7.2065646842525091  2.0383573738187999   F   F   F
  5.3529991774882602 -1.9289386991343100  8.7046791574286093   T   T   T
  5.2911096639882409  0.6145995532517596  2.1562708040735301   F   F   F
  0.2127566992526600  4.4505154741054396  6.4765292454592105   T   T   T
  7.6274873027454309 -0.7448354201928007  2.1230267904965299   F   F   F
  0.1531250211682100  7.1298571944477196  6.4984098781889106   T   T   T
  3.1737787519673804  4.5491637748088189  8.5341862314957009   T   T   T
  6.7944617059316199  3.2823019023739501  6.4966669829253210   T   T   T
  4.6171093552502400 -0.5706719803187004  6.4552788052093097   T   T   T
  6.2336876798260006  4.5046113786599404  4.2346264934421400   F   F   F
  5.4439638787326610  5.8790764767157597  2.0884195399175400   F   F   F
  8.3176544883670314 -4.6758387391426499 10.8119998851589507   T   T   T
  3.8796880743561704  5.8898649734904707  4.2374955943543302   F   F   F
  0.8578502443192101  5.8253301454684800  8.6737132965694705   T   T   T
  6.1079918018192805 -0.6667314294866002 10.9145498081229917   T   T   T
  6.2200378730155998 -3.1225489654787699  4.2300273507578501   F   F   F
  0.8561562403431801  8.4908768932349687  8.6880126215492304   T   T   T
  1.6082730148560105  7.2612302910314996  4.1956368765854002   F   F   F
  6.1247579379391199  1.9315150185415597  4.2653890679709203   F   F   F
  4.5684716514373296  4.5008377226860095  6.4350116931942498   T   T   T
  1.6714432380654101 -0.6901106285870500 10.7604076075292205   T   T   T
  0.8463777091582401  0.6792340854452498  2.1292028348511503   F   F   F
  0.9306298231114501  5.7488227154250291  2.0877640377489102   F   F   F
  8.4015468280473709  3.2784073946180290  4.2870843177435898   F   F   F
  3.0827689248922399 -0.6059266449472802  2.1983222187270202   F   F   F
  7.5416451850751596  1.9426350756808495  8.6605929027675703   T   T   T
  6.9449960420390706 -1.9707718916515007  6.3799485415423112   T   T   T
  0.8939192240036001  3.1899793698158101  8.5643018836058697   T   T   T
  8.4531191738295224 -4.5097434252340207  4.2377395114023502   F   F   F
  0.8776715024073801  8.5643067950056189  2.0710513739012701   F   F   F
  4.5864030501409898  2.0129725731789194  6.3772336125288103   T   T   T
  6.0484157269710597  4.5322490923065200 10.6456584675171708   T   T   T
  5.3862916383592703  3.2450569849189899  8.6187830647921704   T   T   T
  3.0882547780026703  4.5345061658782804  2.1293810800148800   F   F   F
  6.0766268597464803 -0.5923327127837904  4.3040505004969196   F   F   F
  8.4089210800463920  3.1162704140484796 10.6952951093983710   T   T   T
  1.5906127408713102  1.9122433164412398  4.1969607746667004   F   F   F
  8.5164697856478497 -1.9732379051797901  4.2869801096066702   F   F   F
  3.1135770087703203  7.1565999067733896  8.6922683749486005   T   T   T
  7.5281252356178001  4.5028660092483390  8.6002784797225917   T   T   T
  5.3168120926736808  3.2260550955950298  2.0916868788170602   F   F   F
  3.9903409985414000  5.8695562180476299 10.6683963068283507   T   T   T
  3.9215052421491103 -1.7871002893979799  4.2926539765271201   F   F   F
  6.0518222542111708 -3.3611329123433098 10.7619123753412396   T   T   T
  7.5812398130349408 -0.6099146616066102  8.6751276074738701   T   T   T
  3.9584421032143000  3.3434620859636199 10.7268342292328995   T   T   T
  1.7072209052253902  7.1730483672154897 10.7258495702731409   T   T   T
  3.0754867689479299  1.9173441830332891  2.1953668739203005   F   F   F
  3.1028653099424504 -0.6730317489651001  8.6699912639221903   T   T   T
  6.8674283632578312  5.8467327812374581  6.4171913554293400   T   T   T
  2.3780113604567501  0.7612186418715499  6.3258526328465106   T   T   T
  1.5994919073465401 -0.5134685879653502  4.2105758266193805   F   F   F
  2.4346736532417999  5.7608348297205989  6.3976468954636196   T   T   T
  7.7017892410897302  4.5144821194164182  2.1137676487933299   F   F   F
  3.7758459843697705 -2.0391996105825703 10.7595442108769905   T   T   T
  2.4056565648246999  3.1798384113258096  6.3923830435506908   T   T   T
  3.8579979893453600  0.5836011763921797  4.2781421126485597   F   F   F
  8.3958257199020903  0.7126844278569696 10.7728378574088204   T   T   T
  0.9359308477885201  3.2168383822531799  2.1969178725793101   F   F   F
  5.3400357891770209 -1.9041534564875500  2.0917558592520802   F   F   F
  7.7822544619495302 -3.2591774852262301  2.1367210330127300   F   F   F
  1.5930269966858701  4.5044938514067798  4.2208811355935802   F   F   F
  0.8973865794802400  0.7158707147965299  8.5943213193676300   T   T   T
  5.4492759651769207  0.7191952138229898  8.6510232620371603   T   T   T
  5.4082355183411401  5.7507479098537395  8.6661247812556503   T   T   T
  0.1396388794908500  1.9826622533308300  6.3440732103638204   T   T   T
