Pt Pd Ni Co Fe 
 1.0000000000000000
     8.9645670000000006   -5.0970750000000002   -0.0554420000000000
     0.0644260000000000   10.3118449999999999    0.0416760000000000
    -0.0230490000000000    0.0365270000000000   22.9434980000000017
 Pt  Pd  Ni  Co  Fe 
  15  16  18  14  17
Selective dynamics
Cartesian
  5.3870828187918800  5.9518448315948005  2.1903580643572802   F   F   F
  8.4488830648246509 -1.7072564109713602 10.7360460874249011   T   T   T
  6.1090768676364009 -3.0166990876866100 10.7855396877222418   T   T   T
  0.0957090527796000  2.0178295824250401  6.5525387399593606   T   T   T
  5.4985274162786908  5.8968746524758000  8.5876111776143009   T   T   T
  2.4912090195823398  3.3023676448799999  6.4612291085048001   T   T   T
  3.1108389734638497  4.5765727658316395  2.2200361440076199   F   F   F
  5.4736043491441704  3.2765891183954396  2.1412797793182201   F   F   F
  8.4161521558691703 -4.3463184635975907 10.8464850374615800   T   T   T
  3.1817911853496001  7.2097271263142888  8.6332381785428005   T   T   T
  1.7240972492627002  2.0090247608398597  4.2132858029558804   F   F   F
  8.3948903863178916  3.2125248473095698  4.2107817997867807   F   F   F
  8.3363933556863898 -4.4341334078142900  4.2143548522103407   F   F   F
  0.8413304243280600  8.3779440353733907  8.5614496944045619   T   T   T
  0.8840267819591400  0.7054340294949401  8.6352249295456804   T   T   T
  8.3938832835308119  3.3224231005354690 10.8396275835601408   T   T   T
  5.3198535968514600  0.7027058501848499  2.1030956998902401   F   F   F
  3.1885944389324501  2.0033919116837198  8.6225220654825403   T   T   T
  1.6787301911875800  7.0623194896078489 10.8964124633007202   T   T   T
  3.8368828246711901 -1.7117097534557497 10.8126388080355404   T   T   T
  8.4049067444106988 -1.7706763441735101  4.3305708301336807   F   F   F
  6.0567542555983804  4.6197179570861699 10.8985322020454412   T   T   T
  6.1027964217414796 -0.5341592115453601  4.3462863305578407   F   F   F
  4.7646492078409404  7.1872590291987706  6.4630012259612810   T   T   T
  2.3576875078906401  5.8956603450306906  6.4731048753277207   T   T   T
  6.0629347722110198  1.9710585442408595 10.8156418564067618   T   T   T
  5.4646847949337012  3.2647857127869795  8.5187451846054394   T   T   T
  7.6388748138537608 -3.0928996619441702  2.0820915662532800   F   F   F
  3.8907452164992300 -1.9529003018489701  4.2754445050562202   F   F   F
  1.7044892512269501 -0.6570281212761000  4.2506117364040605   F   F   F
  7.6604480056419799 -0.4703623935913703  2.1224154197492004   F   F   F
  3.1903725329225905 -0.5424486329297000  8.5201869307863003   T   T   T
  0.9436131066630500  3.2758924776550398  2.1555366363757802   F   F   F
  8.3961815382727600  0.7678152382823303 10.6141995300403202   T   T   T
  4.7650443814590293  4.5277424800385795  6.3830352876476208   T   T   T
  6.1169048187337811  4.5605297816928605  4.3095715048250405   F   F   F
  3.9000825506956098  5.8301186427116996  4.3561074636363006   F   F   F
  8.4479339068853321  0.7504322492784800  4.3213217414425804   F   F   F
  3.8688841587933105  5.8116475968795305 10.7222205239074597   T   T   T
  1.6820086118226902  7.0628998684053306  4.3576128834506207   F   F   F
  0.1425194699023800  9.6910911191835201  6.4828419972261200   T   T   T
  3.1215956262579203  4.6039914309328207  8.6594930716736798   T   T   T
  6.0966042464075896 -3.1676756101544696  4.2979834548116607   F   F   F
  3.1206443418142205  7.2933173037391104  2.1258434527795602   F   F   F
  1.6823852451970500 -0.4550172653814301 10.7667210942643017   T   T   T
  0.0874388165690200  7.1130417151726801  6.4702432332704802   T   T   T
  0.9476342752742800  0.6020212442032500  2.0803049053747200   F   F   F
  2.4064929875118901  8.5380834769587803  6.5054570267360212   T   T   T
  2.4495863952993302  0.6758585764597498  6.4346650287541411   T   T   T
  3.9110449744960003  0.7808161282998097  4.2608044967819607   F   F   F
  4.5750307999040505 -0.4659721634400301  6.4782030402595812   T   T   T
  0.0706130448544900  4.6328869970763797  6.5732385882522211   T   T   T
  1.7645969252624703  2.0403311074693100 10.7498438450142206   T   T   T
  7.6671216381185809  4.6216882374829789  8.4972698592740006   T   T   T
  0.8540326212730199  3.4109986871152200  8.6402714071280009   T   T   T
  6.9598473511612609  5.7986483832769595  6.4476439739642810   T   T   T
  3.8199296171198101  0.7224722136761800 10.6739390399824607   T   T   T
  1.7181543088826103  4.5672691691895597 10.6194764981483409   T   T   T
  6.1029390236683598 -0.4849691034452800 10.5692345892830009   T   T   T
  1.6838353074473402  4.6500639295675796  4.3384246163743603   F   F   F
  4.7444008314593100  1.9104632563457804  6.3392429833499406   T   T   T
  0.8316287611951201  5.7933222747151296  8.6253945855601604   T   T   T
  7.6334130706419403  1.9513975028713402  8.5395249046494008   T   T   T
  6.9540272861681105  3.3452390982524198  6.4324152732083402   T   T   T
  6.1475578831355504  1.9961974845924599  4.2959753701033803   F   F   F
  6.9212078246124609  0.7764836486808903  6.4897514496055608   T   T   T
  5.3854686380978496  0.6727180946547001  8.6137152068015403   T   T   T
  3.7266057161652699  3.3503363416626404 10.7621172294239411   T   T   T
  6.8533468887194404 -1.7770355819023000  6.4547188647022811   T   T   T
  7.7419376633189003  2.0091791796972998  2.0305414884455204   F   F   F
  0.9495897264283101  5.8730926849553207  2.2589322638409404   F   F   F
  3.9220389167086398  3.3200706070967394  4.2947413434796404   F   F   F
  7.6764391125628100 -0.4458574268157697  8.5928631874523003   T   T   T
  5.4089187953112408 -1.6962906480885707  8.5713165400738003   T   T   T
  5.3476260759139098 -1.8655597480013597  2.1358807246250202   F   F   F
  0.9082608755440802  8.3550907069620202  2.1285184107234403   F   F   F
  3.0772893685651601 -0.5668594718032401  2.0913831529290401   F   F   F
  7.5996059313329605 -3.0749487642708004  8.6130757347764799   T   T   T
  7.7483230520549302  4.6192245030598604  2.0849841662146202   F   F   F
  3.0990653512511206  1.9524236310853897  2.0779178670889604   F   F   F
