Pt Pd Ni Co Fe 
 1.0000000000000000
     8.9788379999999997   -5.2082129999999998   -0.0213960000000000
    -0.0412480000000000   10.3512199999999996    0.0130200000000000
     0.0054110000000000    0.0005430000000000   22.9185650000000010
 Pt  Pd  Ni  Co  Fe 
  14  17  16  18  15
Selective dynamics
Cartesian
  7.7024102667612588  4.5399805047977910  8.5667399728043208   T   T   T
  3.8285849566998702  3.3661356064662193 10.8538771676799506   T   T   T
  3.0355471385283304  4.5778995266010698  8.5168486362659905   T   T   T
  3.1583134721846600  7.1790960305235698  8.6282261006381198   T   T   T
  0.0325681174352600  7.1211879970436192  6.4650517528607807   T   T   T
  6.8683901776143905 -1.8789975605498404  6.3771667843707895   T   T   T
  7.6009129494894196  4.6132075798908501  2.1552218073080400   F   F   F
  2.3244981827802103  8.4423602482625490  6.5158048607449501   T   T   T
  3.2118574091799204  7.1291979565156893  2.1541807410250602   F   F   F
  4.6963023602653706  1.9828470194065702  6.3643445305064699   T   T   T
  7.5582525043471298  1.9924428401966296  2.1785904164812702   F   F   F
  0.9157907676676700  5.8182674441230500  2.2292015144041701   F   F   F
  3.8992219582130900  3.3433551464980402  4.2189838639331700   F   F   F
  8.5228847614150602  0.6742057045115606 10.7818596344378612   T   T   T
  6.1358806468482703 -0.6553161156521503 10.7833438825682908   T   T   T
  0.1423228235496100  1.9931011807811798  6.4630369962872098   T   T   T
  7.6150461383036987 -3.1805954425750596  8.6506402626057408   T   T   T
  3.1466441412764499  1.9473228138803205  2.1664615543788899   F   F   F
  7.5870553375755794  1.8822173320970306  8.6058473709766812   T   T   T
  6.1521453097990291  2.0297539086217196 10.9025982259325502   T   T   T
  4.6465242677000003 -0.6516291678880798  6.4264131236829201   T   T   T
  1.6060573262232098  1.9518764454873201  4.2838041007964902   F   F   F
  6.7708931138508701  5.7881380360893901  6.3513781215882101   T   T   T
  5.3704115379735997  3.3020069395645102  8.5504424046671001   T   T   T
  7.5778232812093202 -0.7120675053215602  2.2097767403574804   F   F   F
  2.3464450727110298  0.6755373643305501  6.4635947528692101   T   T   T
  6.1258251299740802 -3.2883989085370700 10.8643570571519010   T   T   T
  3.1814502036198502 -0.6293723882927499  2.1491083189296298   F   F   F
  3.7561172917210701  0.6175193507513801 10.9100327512360309   T   T   T
  1.6285037957867998  7.1735624794022401  4.4164558931425200   F   F   F
  3.0962190527977800  1.9137155165977302  8.6356313447159607   T   T   T
  5.3806779675422405  0.6626019246464702  2.2360097222765400   F   F   F
  1.6166453391063498  4.5560999407671705 10.6816991540780517   T   T   T
  5.4346789406024598 -1.9706230782870600  2.1245341666486999   F   F   F
  3.9112373223580601  5.8733577496507587  4.2389657535399001   F   F   F
  2.3555875609132397  3.3591424245573402  6.3986370527075200   T   T   T
  5.3441519146514294  5.9057676036405393  8.5889497044706307   T   T   T
  0.9344940161782801  0.6333337562819998  8.6724836181200402   T   T   T
  3.9126539160597096  0.6116308844049601  4.2794181412363903   F   F   F
  1.5116832559544600  2.0052236259077403 10.7122243240266197   T   T   T
  8.3397206931362486 -4.5234432934256388  4.2202297694188902   F   F   F
  0.8403565851943899  3.2118160218449998  2.2117388787444701   F   F   F
  7.6392903823602500 -0.6452262403862302  8.5454291879661106   T   T   T
  2.3975906290692097  5.7800551497814894  6.3987516568717497   T   T   T
  1.6535418459916298 -0.6262523938456900  4.2691329113219307   F   F   F
  3.1377047227881198  4.5616972532853000  2.1519826502706798   F   F   F
  6.8601397427262789  3.2663012951509596  6.3183923230994807   T   T   T
  0.9164161563133300  8.4594860252955293  8.7018294532096316   T   T   T
  6.1398893831714600  4.5445905141834801  4.2460712249242203   F   F   F
  8.5149280111229988 -1.9003805078253795 10.6573237299232417   T   T   T
  1.5695747333478898  4.5429017749520391  4.3668567168710100   F   F   F
  3.8458589153665397  5.8703816393295600 10.6919523612228211   T   T   T
  5.3927929269609702  0.5436145320578898  8.5752228757201099   T   T   T
  8.3098294592862096 -1.9267845462439099  4.3023686438286299   F   F   F
  8.2736709251013796  3.2331483962339900  4.3164912169118397   F   F   F
  1.5849285617668198 -0.6480108261661101 10.6622671720774402   T   T   T
  5.3444390464836600  3.3720084525468805  2.1064798581237403   F   F   F
  0.1945742994680100  4.5590257152534095  6.4730278041789502   T   T   T
  4.5598043097437797  7.0892440326172101  6.3665680656924799   T   T   T
  3.8312450449948097 -1.9707880663639596 10.7134189273628113   T   T   T
  6.1261266213922294  4.5749876038125805 10.6710325390287508   T   T   T
  5.3497964444922799  5.8042587160604802  2.1768357338723199   F   F   F
  7.5947373436527492 -3.2104239970961892  2.2386521130934902   F   F   F
  0.0806030392585400  9.7034677834546095  6.3240109455021605   T   T   T
  5.3688814930913500 -1.8358500660015800  8.6181746699109905   T   T   T
  3.1344622487739797 -0.6332925605942299  8.7103400062616796   T   T   T
  4.5482703178188792  4.6178429545394799  6.3665293339547198   T   T   T
  0.8429567151388200  3.2607640560478899  8.6218377187610002   T   T   T
  3.9168476420779297 -1.8956478022700698  4.2550945243283502   F   F   F
  0.8955600578920400  0.6302141179633400  2.1746584184948401   F   F   F
  8.4005540600828894  0.5972304914798602  4.3202537573103301   F   F   F
  0.8343948778940300  5.8188276089722697  8.5481546039943304   T   T   T
  6.1333675015952505  2.0270191112707194  4.2554068076356906   F   F   F
  6.8728588749750497  0.6549750820959003  6.4227270030139705   T   T   T
  6.1766593521010593 -3.2632444910199094  4.1695804740393196   F   F   F
  8.4053478917498410  3.2951781616082894 10.7088398761660599   T   T   T
  8.4593919893479192 -4.5281754160698400 10.7038061140397200   T   T   T
  0.8864008493122700  8.4740832171745311  2.2039772637182500   F   F   F
  1.6904365313078300  7.1874178642427999 10.7474676416830697   T   T   T
  6.0545899712657496 -0.6603838256964599  4.2317364992277104   F   F   F
