Pt Pd Ni Co Fe 
 1.0000000000000000
     8.9564489999999992   -5.1570619999999998   -0.0271120000000000
     0.0040050000000000   10.3273039999999998    0.0160500000000000
    -0.0007110000000000    0.0043940000000000   22.9221719999999998
 Pt  Pd  Ni  Co  Fe 
  14  14  18  17  17
Selective dynamics
Cartesian
  3.8570116914729895 -1.8934863709060801 10.6885847630366602   T   T   T
  0.1197116252519400  7.1822862731635793  6.4280040845630593   T   T   T
  6.7996107265623307  0.6693205300218998  6.4423419814008396   T   T   T
  0.9377941878340200  0.6918211398750800  8.6160581959557199   T   T   T
  6.0300874164887102  1.9910263489109994 10.7719046741942606   T   T   T
  5.3693294947036199 -1.9282660622261796  2.1660517766565799   F   F   F
  3.0685181337445497  4.4756284534148412  8.6042189728986997   T   T   T
  6.2177608570637686 -0.6121718339747194 10.7201474498285396   T   T   T
  4.6657608754316398  7.2196402842280802  6.5114930709352796   T   T   T
  3.0932895416499897 -0.5624341614634399  2.2287870936206602   F   F   F
  7.6075089285684596 -3.1038075338491193  8.5183539729237197   T   T   T
  2.3606897034347094  8.4789024357063205  6.4643588032675403   T   T   T
  2.4089337948135601  0.8021422470485798  6.3599226468940593   T   T   T
  3.8809372408981195  3.3465316861107799  4.2494234849108601   F   F   F
  7.6712127001193702 -3.2311567095729394  2.2168095083451198   F   F   F
  6.1939673742711596  4.5989743860509806 10.8811245033666211   T   T   T
  5.4006020397697503  3.2841272871212004  2.1274969764408600   F   F   F
  7.6488536375980187  1.9747082015441806  2.1334775190525801   F   F   F
  8.4511381616173793 -1.8565402960131596  4.3013317295692000   F   F   F
  7.6197891360086993  2.0005109273226802  8.6436221540108793   T   T   T
  5.3870412909342589  5.8129994702924401  8.6551955790317194   T   T   T
  6.0927736364864096 -3.2870185415741799  4.3743477350891595   F   F   F
  2.3578327579049101  5.8277941950815801  6.3984514807596806   T   T   T
  1.5892892870125497 -0.5650085556063800 10.8648806620018803   T   T   T
  4.7190855165151495  4.5184109910987198  6.4074404047787397   T   T   T
  3.7633739967405897  5.8075399138947610 10.8732557751353394   T   T   T
  6.0917418536803192 -0.5683981391728999  4.2754380865164201   F   F   F
  0.9559215529310700  5.8569386235745995  2.1763371181949402   F   F   F
  6.1556298992491492  1.9978116932937409  4.2542864562780798   F   F   F
  0.9120431406756599  8.4271666917626398  8.6505485705249594   T   T   T
  3.1303599903834294  4.6015094344370002  2.1420667333536998   F   F   F
  1.5873575352163196 -0.6628704536719999  4.3151681183353601   F   F   F
  0.9884434479041699  3.2618927771017603  2.2320193319967401   F   F   F
  0.0832857517311300  9.7532151178728004  6.4423980666747802   T   T   T
  5.2867250859407404  0.6943228781898200  8.5663287870086204   T   T   T
  5.3260739269937103  5.8180302331574003  2.2097667353720603   F   F   F
  7.6703954692257890 -0.5760848409517999  8.5773481362239803   T   T   T
  0.9208959104599199  0.6747199091916599  2.2585246231964997   F   F   F
  5.3662392459395090  0.6882510267170003  2.1560981193743798   F   F   F
  0.1661121074513700  1.9851879658525402  6.4164412697996394   T   T   T
  3.7893428024765399 -1.9102393397676998  4.3424106188118197   F   F   F
  3.1859659101967202 -0.5725865864787599  8.5802548626203201   T   T   T
  0.8983209242463299  5.8527862608182595  8.6231925546227206   T   T   T
  5.3638419702902400  3.1854633606946594  8.5282509102970199   T   T   T
  5.3730015857435687 -1.8062825234701601  8.5591434676825404   T   T   T
  4.6173090369192300 -0.5618507736722004  6.4823637436253394   T   T   T
  8.4619929945336274 -1.8874132981830796 10.6448492619399389   T   T   T
  1.6521027000339596  7.1819873651965001  4.2742535782082198   F   F   F
  3.7912744547100896  5.8979717600997406  4.1990102978886403   F   F   F
  3.1909496807923197  1.9277977772005199  8.5926980177546799   T   T   T
  3.8438924265475194  0.7504171069715401  4.2273653455880993   F   F   F
  3.0343342187177096  7.1961729385081599  8.6404167669145391   T   T   T
  1.6581680251920901  4.6292687508561601  4.2740832305989800   F   F   F
  8.4502500804850484 -4.5578746338462199  4.3789318155940000   F   F   F
  3.0699055733551197  1.9786570578329603  2.1931312883990399   F   F   F
  1.6612038669909601  1.9427826497087797  4.2073830777046997   F   F   F
  8.3312158707938693 -4.3882308561872998 10.6409583517528805   T   T   T
  0.9147212472546000  8.4393838875694787  2.2862811138371599   F   F   F
  6.9189421392529198 -1.8577334540312602  6.4644138634999395   T   T   T
  1.5397198855910998  4.5560657627537600 10.6384031683191207   T   T   T
  1.5754388787980098  7.1041680911323200 10.6166817244443390   T   T   T
  8.3923288592565601  3.3489450821713596  4.2310546945894005   F   F   F
  2.2878194117462995  3.2960502465650801  6.3901865871480394   T   T   T
  8.4135742607234700  3.2418399921285008 10.7350602053320401   T   T   T
  3.1409427857448593  7.1305459869373404  2.2729584031380199   F   F   F
  1.6248101550124501  2.0336906218347401 10.7125251367431602   T   T   T
  7.6409852426504985  4.5547194458139408  8.6112353677537801   T   T   T
  6.2264964365041493  4.5345721194653787  4.2304181658555997   F   F   F
  7.0015369998725987  5.8424525587174809  6.4228787276204802   T   T   T
  0.8680590258234300  3.3139966170133799  8.6123398671579192   T   T   T
  6.9113860757804693  3.3302087085957206  6.3889911096284600   T   T   T
  7.5966801129809998 -0.6305575224173000  2.0734970939818598   F   F   F
  6.2173749216968091 -3.1415278133851396 10.7294699680065211   T   T   T
  3.7897267308806692  3.2228879653757803 10.6729897701404006   T   T   T
  8.4164894230572003  0.7786519783995205  4.2946841770678805   F   F   F
  0.1494149859902700  4.4708906545748404  6.5141365443802197   T   T   T
  7.6667828831315088  4.5701741828733411  2.1686339270022801   F   F   F
  8.4687682468780778  0.6068713845773995 10.6944962258837197   T   T   T
  4.6339175405082598  1.9758525392626196  6.4365389991763005   T   T   T
  3.8303458395229799  0.7243400291642001 10.6175884979270787   T   T   T
