Pt Pd Ni Co Fe 
 1.0000000000000000
     9.0348150000000000   -5.1878500000000001   -0.0082870000000000
    -0.0577960000000000   10.2815770000000004   -0.0342180000000000
    -0.0094090000000000   -0.0583070000000000   22.9315239999999996
 Pt  Pd  Ni  Co  Fe 
  17  17  16  16  14
Selective dynamics
Cartesian
  4.6257478622541992  7.0882248239742500  6.4289169294770403   T   T   T
  2.2609090853721101  8.3966069368722298  6.3544913978250097   T   T   T
  3.8239752783414902  5.8870920654534213  4.1796454859345005   F   F   F
  8.3859637510690703 -1.9815607092418397  4.2504054727682599   F   F   F
  6.1807925698116009  1.8892398530837995 10.7001654481929496   T   T   T
  5.3417601958567298 -1.8742766868847598  2.2315170744380901   F   F   F
  1.5508960486942001  7.0791172059669005 10.9032711276312799   T   T   T
  3.8702049006546000  0.5965857941130499 10.8267812258376495   T   T   T
  0.2103414408576800  4.5102548578920398  6.4829513501678599   T   T   T
  3.8303538491239797  3.2111309604918401  4.1806483240697005   F   F   F
  4.5624663935894896  4.3261330784470706  6.4995261231146904   T   T   T
  5.4347831178516106 -1.9432032412742701  8.6838432522247597   T   T   T
  7.7144308625757603  2.0553405409815801  2.1166878407740000   F   F   F
  6.9789846616625306  5.7275118035028401  6.4716169334625588   T   T   T
  0.9549652661722100  5.8279637339213304  2.0495320194363402   F   F   F
  8.5061127848411608 -4.5936905434795205  4.2084181779746697   F   F   F
  0.8306687252067801  0.7298671735190900  8.6370615350083089   T   T   T
  3.0130707060930204  1.8846078006032601  2.0489648081850600   F   F   F
  6.9481900270705408 -1.8976289539666800  6.4853574522418995   T   T   T
  3.8278620209793304  5.6578519918774903 10.8192150923594088   T   T   T
  7.6700937781329408 -0.6443774681683297  2.1284115150151899   F   F   F
  3.1045264876233398 -0.6442684516071300  8.6216104929892392   T   T   T
  3.8704313055416901  0.5406607942746700  4.2460580712174405   F   F   F
  6.9344340519061998  3.0689836486637012  6.4439551732953593   T   T   T
  0.8999371812699500  5.8486277108705007  8.6153340722514908   T   T   T
  8.4002501328315304  0.6999976181998903  4.3223185989599395   F   F   F
  2.3822978798103702  0.7467622805836102  6.3936194402088402   T   T   T
  8.4191489756991889 -4.6380409225687300 10.8546681124109501   T   T   T
  5.4135491881258497  5.8045102062469507  2.0249934280727899   F   F   F
  6.1836377157977802  4.4653066085956405  4.2197673472265400   F   F   F
  6.1593483500262005 -3.2803756645313498 10.8338033667534290   T   T   T
  2.3068507231483002  5.7298507588104499  6.4072523026266799   T   T   T
  5.3783086565193203  3.2087141688729601  2.0195530144979901   F   F   F
  7.6875616272026903 -0.5813357915863799  8.7006522156084607   T   T   T
  1.6495142719320199 -0.6720939292419901  4.2427020483958602   F   F   F
  0.9206866733889000  8.4574018685521004  2.0792267786469401   F   F   F
  8.4953478535721008  3.1963075534456000  4.2684233849435795   F   F   F
  8.4215551310196606  0.5462332205355301 10.7955417464175003   T   T   T
  5.3847502469268598  0.6350913278920304  2.1369248363284901   F   F   F
  3.0419857766422003  7.1774459294310002  2.0790778569808896   F   F   F
  7.7322861009001196  4.5563589669944609  1.9888086998149499   F   F   F
  6.8442887145994087  0.6679594885269801  6.4263237990498201   T   T   T
  8.4236885487020210  3.0705315589875593 10.6878045546992393   T   T   T
  3.8947391445540398 -1.9288468570065298  4.3320373152628395   F   F   F
  6.1469776693832205  1.8416134760028604  4.2500179884952596   F   F   F
  7.5976157940164395  4.4002511021841197  8.6241956264945596   T   T   T
  6.1211557056396195 -0.7005982898245897  4.4206661391918693   F   F   F
  0.8906570835045601  0.6256791597498300  2.0793729537431100   F   F   F
  0.1941648535817100  1.9320942015420299  6.4435792451525602   T   T   T
  8.4397667342378107 -1.9731905673733205 10.7591564314700694   T   T   T
  0.1043666390957700  7.1718090200165605  6.4357220898113905   T   T   T
  3.1239877744683899  4.5492304115447197  1.9659857730685597   F   F   F
  0.8885769102528900  3.2106242961704199  2.0994919287167799   F   F   F
  1.6135375819440900 -0.7304113562520301 10.7721717555461005   T   T   T
  3.1823482412692305  1.9708890928058402  8.6072948503875999   T   T   T
  1.6028032878885099  7.1660965421379306  4.2033323918114096   F   F   F
  5.3925630933426092  5.6779037568936808  8.5771239314625802   T   T   T
  1.6074005403529301  1.9284635342836900  4.2163495196929004   F   F   F
  6.1389783200582499 -0.6823130340291493 10.7566395062580096   T   T   T
  2.3471467964806196  3.1832455419453600  6.3986109102226392   T   T   T
  0.9319288177683100  3.2317922844303797  8.6645063710734895   T   T   T
  7.6583713419151298  1.9915336443560405  8.6010903261650995   T   T   T
  4.6859049295622892  1.8298182986671201  6.4933585276900301   T   T   T
  5.3531405401185292  0.7009715509726400  8.5088087555990395   T   T   T
  1.6124767784393501  4.4699709529254505  4.1552772139421403   F   F   F
  0.7731098407027100  8.3784236396620795  8.6270966028727400   T   T   T
  3.8299323224268598 -1.9928713325002698 10.7491924741430598   T   T   T
  4.7076335883821487 -0.5617151697574496  6.4307098719891096   T   T   T
  3.0884936185949003 -0.6639246783699999  2.1129912140466800   F   F   F
  7.7773238895991099 -3.2655852651236201  2.0687029635728997   F   F   F
  3.1453714443480201  7.0124636167446601  8.6176870828337488   T   T   T
  3.8652799224112702  3.1278784585531105 10.7279086655394202   T   T   T
  1.5142610786139998  4.4252193252099001 10.7592652343252890   T   T   T
  1.6407083413019801  1.9696593204132398 10.8201396977029898   T   T   T
  7.6590508136649706 -3.2998382319600901  8.6471618124986396   T   T   T
  3.1525430977652498  4.4178745098269507  8.5981121844996693   T   T   T
  6.1386309054624002 -3.1809642628565000  4.4083608787354303   F   F   F
  6.0930477368632090  4.4339978066678807 10.7053082219649696   T   T   T
  0.1365527233861000  9.5919854776830018  6.4343676899842706   T   T   T
  5.3703629855133794  3.1514235599560902  8.5726151758398306   T   T   T
