Pt Pd Ni Co Fe 
 1.0000000000000000
     8.9845959999999998   -5.1242000000000001    0.0030630000000000
     0.0408230000000000   10.3251139999999992    0.0249720000000000
     0.0492080000000000    0.0155290000000000   22.9187680000000000
 Pt  Pd  Ni  Co  Fe 
  18  15  16  18  13
Selective dynamics
Cartesian
  5.4273508518571196 -1.9012732539874400  2.1782117767005200   F   F   F
  3.8833250166461801  3.4027581934278195  4.2762556817516000   F   F   F
  1.7277169007497599  7.0313018298017900 10.8717032397120192   T   T   T
  1.6888298144303100  2.0223965846645293 10.8416263870276293   T   T   T
  8.3798477337497399 -4.3837931395574001 10.8664531995297491   T   T   T
  1.7803831109284698  7.1856695356520497  4.2553052928978703   F   F   F
  1.7101849135703697 -0.6102598295396300 10.8626024202702194   T   T   T
  7.7271789706130098  4.6753099813287191  8.5504976700299196   T   T   T
  3.1689552392745202  4.6078842771914488  8.6628760017232906   T   T   T
  8.4384041033020907  0.7852181131407000  4.2893374399929396   F   F   F
  3.9542823210583400  3.2933262912661396 10.8816322158488408   T   T   T
  5.4387996072328999  3.1953734917854297  8.4945525801852497   T   T   T
  6.2341156218776499  4.6111472238693487  4.1963999681219901   F   F   F
  5.4420324205601096  6.0291073160851001  8.5666136744299415   T   T   T
  6.1619364071736191  4.6170586930311694 10.9209199550624803   T   T   T
  2.4831827450290098  5.8802851707621393  6.4629419456003205   T   T   T
  2.5911940240565499  8.5322896211139092  6.4439803375958702   T   T   T
  2.4546409438477301  3.2126533584332400  6.4694967085963908   T   T   T
  8.3954226076896195 -1.8800229100641808  4.1710921573020094   F   F   F
  3.9114905133375397  0.6668697328076396  4.1844074991859905   F   F   F
  0.1767679077808800  9.6937152367508990  6.3227427007569306   T   T   T
  3.1216574854411396  1.9732329227822096  2.0391417613792999   F   F   F
  1.0131946180918201  8.4280457438837804  8.6045646489327208   T   T   T
  8.4072837396083084  3.2178462258557299 10.9860065518154499   T   T   T
  1.6262313930414400  1.9736234781702400  4.2031156268142604   F   F   F
  4.0172037898003197  0.6778098325708201 10.7957632785261310   T   T   T
  7.6855190093784902  2.0609142460666692  2.0855956923989498   F   F   F
  0.0628262038349300  1.9699367868943898  6.4277693539320691   T   T   T
  4.0266020153050199 -1.9471156771653699 10.8139260035427096   T   T   T
  8.3488011369549717 -1.7263954036939302 10.9012209920562206   T   T   T
  7.6972689990456695  1.8944218663095491  8.5874753155744710   T   T   T
  6.1840903484423491 -0.5711552187237201  4.2824337628973694   F   F   F
  0.8454984262063799  3.2939167497843695  8.6118288159877689   T   T   T
  1.6774045465190399  4.6150921202955395  4.2914656412229499   F   F   F
  0.9815582176356199  8.4398748866213893  2.0907225257970299   F   F   F
  0.8477259483008200  0.6156873389450298  2.1413676794926699   F   F   F
  0.9366252198471899  5.8410479938814301  2.1446898465629500   F   F   F
  5.4229691406478899  3.3389451642838002  2.1154470532458602   F   F   F
  6.1805374453317095 -3.1305181102586301 10.7406051578509505   T   T   T
  3.9886492620382303  5.9279847481491394  4.2204754436328296   F   F   F
  5.4185217053391099  5.8235996678036495  2.1424319921864101   F   F   F
  8.4896504207250505  3.3908473590656696  4.1867069269919899   F   F   F
  7.6043932037783701 -3.0468881181476206  8.5708659145342594   T   T   T
  3.0813433530413299 -0.6890689979561900  2.1263499722763699   F   F   F
  7.7104444732703801  4.6370266712976891  2.1044915900401300   F   F   F
  6.1774784860815499  2.0278107190102994  4.2589096077521402   F   F   F
  3.2041064607787102  1.8703829921270896  8.5308962031501601   T   T   T
  6.9107744464346696  3.2378442792807394  6.3615114172725500   T   T   T
  0.1453721789422200  7.0945531147311298  6.4623429886097998   T   T   T
  3.1225835606673198  4.6022222960767900  2.1530378991604602   F   F   F
  1.6674090757503299  4.5914082462304995 10.7694553146766303   T   T   T
  4.7551708009471811  1.8541023961209293  6.4410573907748097   T   T   T
  6.1555115362157098 -3.1590342183761502  4.2829778772476503   F   F   F
  3.2300493096018599 -0.5706216865371302  8.5782376531128310   T   T   T
  0.0527084684668300  4.6203556281735194  6.4837174821721399   T   T   T
  6.8352369854133199  5.9458769004998775  6.3976861029406606   T   T   T
  5.4059696550131004 -1.7524643046288804  8.5546617435665802   T   T   T
  3.9404293235536199  5.8442159628526094 10.7571644543208702   T   T   T
  5.4808994195304503  0.7377685083072996  2.1229797396202001   F   F   F
  5.3886707471726600  0.6044760877248196  8.5685676498906300   T   T   T
  0.9198534161225900  3.3896038395039798  2.0806964656105800   F   F   F
  6.2509225416394791  1.8691240230074402 10.7499643379113206   T   T   T
  4.7910915968465702  7.2209798412783091  6.4464409629885795   T   T   T
  3.2496502724137200  7.2296612065464689  8.6461472040274696   T   T   T
  4.7517585106824090 -0.5520884672160601  6.5321930516124702   T   T   T
  7.7179484923051502 -0.5425344717376706  2.0606345765046199   F   F   F
  1.0253561128888000  0.7033002117361499  8.6445720750441097   T   T   T
  4.8105519320941399  4.5875924114502693  6.3875638763574099   T   T   T
  8.3751933050240286 -4.4561778505116605  4.1938313546536099   F   F   F
  3.1724986529358201  7.0842199060611586  2.1532353354835401   F   F   F
  8.4675163137795604  0.7304184772484696 10.8122793902903105   T   T   T
  0.9566076622455899  5.8565766460363191  8.6245726355721004   T   T   T
  2.5015698545318297  0.6974208739602800  6.5517102658864808   T   T   T
  6.1855779639432091 -0.5379483359985703 10.6669010761204710   T   T   T
  6.9309414679447690  0.7461725602825794  6.4118862789272599   T   T   T
  6.8203978324084797 -1.8801116699295302  6.5159649182252402   T   T   T
  1.6454964360616402 -0.6225326592805102  4.1446027933259497   F   F   F
  7.6175192142788895 -0.6244260652196398  8.5936113958129692   T   T   T
  3.9374316907507101 -1.8991419283436100  4.2686996531506702   F   F   F
  7.6248798194064591 -3.2469027659977794  2.1084940468022699   F   F   F
