Pt Pd Ni Co Fe 
 1.0000000000000000
     8.9787920000000003   -5.1385339999999999   -0.0093560000000000
     0.0222510000000000   10.3219250000000002   -0.0044850000000000
     0.0100720000000000   -0.0211110000000000   22.9158259999999991
 Pt  Pd  Ni  Co  Fe 
  16  13  19  18  14
Selective dynamics
Cartesian
  3.1364906738837806 -0.7074702967007499  8.6121318708032000   T   T   T
  3.0867071802515404  4.5860805994973397  8.7221801080638599   T   T   T
  5.3372877350185002  5.9434813926948307  2.1791862312513199   F   F   F
  0.7962458157301801  0.6986758938029101  8.7204406696076404   T   T   T
  1.7219911981660601  7.0751749090594505  4.2289121402941996   F   F   F
  1.7244096329574901 -0.5143786820993000  4.3782869323255502   F   F   F
  5.4728510462255198  0.5658626277164107  8.4860820321283406   T   T   T
  2.4176037762332903  5.8807795063033605  6.4394778575557892   T   T   T
  8.3989128789164997 -1.8868019131382399  4.3369656515561399   F   F   F
  0.9688650814886399  8.4337636250947909  2.0894744533008600   F   F   F
  1.8134525646200401  7.0943355867487101 10.8075009035231400   T   T   T
  8.3618787746581891 -1.8827806124470998 10.7908369245600504   T   T   T
  7.6758138994918506  4.6200519618077900  2.1505394637656101   F   F   F
  0.2345139961774300  9.7096710707125595  6.5344683223394888   T   T   T
  4.6861212254394706  4.5313605810375606  6.4583740549484903   T   T   T
  3.2453349552010100 -0.5314909634037700  2.1547785200247698   F   F   F
  0.1225065997343500  7.0718211276721199  6.5108159259659297   T   T   T
  6.8430989255362800 -1.7697961798333799  6.5265373379560794   T   T   T
  2.3254461965023197  3.2007490222183002  6.4334355445529994   T   T   T
  8.3843604063642285  3.2815850078319109  4.3302001303389899   F   F   F
  3.1316196817836603  1.9433491951250601  8.6395470566705388   T   T   T
  8.3937500033869892  3.3396623939845504 10.9004503642797488   T   T   T
  7.6227324230839200 -0.5350896981707797  2.2199379603718796   F   F   F
  5.4414847494721998  3.2500250772366206  8.6803675931780795   T   T   T
  5.4391135605155494  5.9165139739302015  8.6809259802474497   T   T   T
  6.1627263706206401  4.5891732348985403  4.3116538746887603   F   F   F
  7.7065063272728391  1.9354398166679809  8.6758222804951206   T   T   T
  6.9523631627276501  5.9205640121061700  6.4939993237079303   T   T   T
  3.8560164411592406  3.2159472744661106  4.2542465468787398   F   F   F
  7.6733450452615202  4.5431204821174305  8.6490590399614202   T   T   T
  0.1644813966474400  1.9927527416653001  6.4670237331998006   T   T   T
  6.1654137533889903  1.8993938251665110  4.3126755571227893   F   F   F
  3.1288933299440500  2.0286337881834302  2.1485921076319698   F   F   F
  3.9401118573634304  0.6386699656057200 10.7353117511093288   T   T   T
  6.0253756196082398  1.9181090196292201 10.7739401066082792   T   T   T
  0.9479736934168801  5.7539872856298198  2.2229864793322798   F   F   F
  8.2552688298067913 -4.4292145876096907 10.7266552271969910   T   T   T
  7.6029622334597402  1.9888524210135303  2.1857771310301199   F   F   F
  5.3938803509452597 -1.8589501865470197  2.2148282273850199   F   F   F
  0.8857151128016001  5.7731154675465595  8.6707640744610401   T   T   T
  2.4876490808681302  0.6815670577715899  6.4178902892778096   T   T   T
  4.6331190678380514  7.2120682398283700  6.4235132834027295   T   T   T
  6.1117480801367110 -3.1606730528480900 10.7425977884109898   T   T   T
  8.4316981186460804  0.6382998545673508 10.7534386432222995   T   T   T
  5.3945053536076699  3.2162744965177108  2.1579151108657899   F   F   F
  4.7318600962344206  1.8957431818778898  6.3616138409905600   T   T   T
  0.8968121872041800  0.8176658750786000  2.1937165034335000   F   F   F
  8.4228321235846799 -4.3901963419970098  4.3156967431662601   F   F   F
  3.8526234490988203  3.2204126011421010 10.8108439673272994   T   T   T
  6.8516178112399402  0.7665129164463004  6.3293845900105001   T   T   T
  6.1400271100611503 -0.5777478042797395 10.6316846454826894   T   T   T
  5.3666861240008199 -1.9540315231106997  8.6313829863705003   T   T   T
  6.0881232466148001  4.5865616350396596 10.7763856089912391   T   T   T
  7.6179865762157295 -3.0941832952821300  8.6610813835345297   T   T   T
  1.6134839044131402  1.9979325539546697  4.2514379170770802   F   F   F
  3.1490796390111204  7.1422358469961198  8.5470328966796796   T   T   T
  1.6295902974074801  4.4726869980131401 10.7567172379397604   T   T   T
  2.5233909740979099  8.4387036896199490  6.4439017117935498   T   T   T
  7.7473955370461995 -0.6374356509214794  8.6414804503834795   T   T   T
  6.0658769865626896 -0.6223022271384696  4.2819153613005705   F   F   F
  1.7052267307359601  2.0127330224453002 10.7861304070691997   T   T   T
  0.9595842249556500  3.1978086636830199  2.1523024908612300   F   F   F
  5.4440889910585204  0.7936000579682300  2.2519617642376200   F   F   F
  6.8697330000825900  3.2186409690569606  6.4894716669984902   T   T   T
  1.6791027123013500  4.4816195442286206  4.2373647603219302   F   F   F
  3.9435925616849303  5.9177594686170805  4.2823214530728695   F   F   F
  6.1665792432630511 -3.1429049410442298  4.3616803968373299   F   F   F
  8.3451917617132008  0.6900651120962502  4.3264987074869001   F   F   F
  1.6881426421971804 -0.4557063876678000 10.8351062632596999   T   T   T
  3.1151989007517602  4.4977843761401193  2.1289823831296797   F   F   F
  3.1902740576796602  7.1966311137603798  2.0902851233782198   F   F   F
  4.5884232106034704 -0.6074143100969900  6.3750209341389894   T   T   T
  0.8349519193328601  3.2748919264712399  8.6530538503642607   T   T   T
  3.9812700776444299  0.7245642553148705  4.2940293809026295   F   F   F
  7.6989323742285105 -3.1720574853553498  2.1681879173235497   F   F   F
  0.1293129786505000  4.5487521660037800  6.5454811970376197   T   T   T
  4.0161242677612403 -1.9295502410908800  4.2625220104478796   F   F   F
  4.0820829701037198 -1.8937676816458402 10.6908989171280382   T   T   T
  0.9624842170576001  8.3415860267118909  8.6852996227202599   T   T   T
  4.0088733195927500  5.6948488285068297 10.8450076239192690   T   T   T
