Pt Pd Ni Co Fe 
 1.0000000000000000
     8.9737360000000006   -5.1895480000000003    0.0044630000000000
    -0.0247690000000000   10.3424999999999994   -0.0160880000000000
     0.0218050000000000   -0.0357650000000000   22.9062790000000014
 Pt  Pd  Ni  Co  Fe 
  14  18  16  14  18
Selective dynamics
Cartesian
  4.6316730081203605  7.0626638527910304  6.5105938187562007   T   T   T
  3.8434341685613003  3.1618471165721593  4.1720377703352609   F   F   F
  2.3833241280856803  8.4867724191654190  6.4453957229919805   T   T   T
  1.6696227784612803  1.9594085954893097 10.8124926246696003   T   T   T
  6.1389834355653701  2.0266699034628193 10.7971621787695717   T   T   T
  6.8424880772533099  0.6405890364953398  6.5158447902205499   T   T   T
  8.3893042481001014  0.6189827366325290  4.2914068217444701   F   F   F
  7.5941178089244206  2.0238410498887092  2.1339270430715800   F   F   F
  3.8738409241982206  0.5848493461312696 10.8309001394318507   T   T   T
  8.3819348610349191 -1.9101257231246707 10.8047220793308316   T   T   T
  7.6598360723774004 -3.2360816634706202  8.5102063347514711   T   T   T
  1.7511478464248900  4.6760656660801709 10.9035776187106404   T   T   T
  0.0974264149687900  9.8615775625707887  6.4344192085558305   T   T   T
  3.1694154878809897  1.8715625533815297  8.4574629714307701   T   T   T
  3.0879940167717903  7.2065646842525091  2.0383573738187999   F   F   F
  5.3602297679516901 -1.9078514165644804  8.7246160539361313   T   T   T
  5.2911096639882409  0.6145995532517596  2.1562708040735301   F   F   F
  0.1996343644557400  4.4440923704914992  6.4781594177608497   T   T   T
  7.6274873027454309 -0.7448354201928007  2.1230267904965299   F   F   F
  0.1495282767345000  7.1465809910209490  6.4938070278961506   T   T   T
  3.1898504445531004  4.5600922691713999  8.5377970508077698   T   T   T
  6.7881367742082999  3.3037546109634293  6.5159030295749503   T   T   T
  4.6084804516471003 -0.5563353037967902  6.4641881280128404   T   T   T
  6.2336876798260006  4.5046113786599404  4.2346264934421400   F   F   F
  5.4439638787326610  5.8790764767157597  2.0884195399175400   F   F   F
  8.3230810914219511 -4.6635261241039299 10.8648076362295303   T   T   T
  3.8796880743561704  5.8898649734904707  4.2374955943543302   F   F   F
  0.8696020222039301  5.8285710738622596  8.6733924520542800   T   T   T
  6.1192947072999502 -0.6685364322345306 10.9732248982169303   T   T   T
  6.2200378730155998 -3.1225489654787699  4.2300273507578501   F   F   F
  0.8532184423098801  8.5005018333435398  8.6887627465823396   T   T   T
  1.6082730148560105  7.2612302910314996  4.1956368765854002   F   F   F
  6.1247579379391199  1.9315150185415597  4.2653890679709203   F   F   F
  4.5712415701400104  4.5205519994805190  6.4183098820621902   T   T   T
  1.6716866634109402 -0.6829290439555002 10.7758326121916408   T   T   T
  0.8463777091582401  0.6792340854452498  2.1292028348511503   F   F   F
  0.9306298231114501  5.7488227154250291  2.0877640377489102   F   F   F
  8.4015468280473709  3.2784073946180290  4.2870843177435898   F   F   F
  3.0827689248922399 -0.6059266449472802  2.1983222187270202   F   F   F
  7.5489058722155917  1.9500775026129593  8.6765057846144291   T   T   T
  6.9327995228928403 -1.9584424731185304  6.3739326016259703   T   T   T
  0.9169043128399701  3.1915907985749299  8.5529148825636696   T   T   T
  8.4531191738295224 -4.5097434252340207  4.2377395114023502   F   F   F
  0.8776715024073801  8.5643067950056189  2.0710513739012701   F   F   F
  4.5911155997639206  2.0142720671720098  6.3626253653374105   T   T   T
  6.0373161648569109  4.5422425673026190 10.6655991698061996   T   T   T
  5.3781329207502706  3.2293694366533900  8.6038713238798206   T   T   T
  3.0882547780026703  4.5345061658782804  2.1293810800148800   F   F   F
  6.0766268597464803 -0.5923327127837904  4.3040505004969196   F   F   F
  8.4273307941387312  3.1238383524359494 10.7327800596518710   T   T   T
  1.5906127408713102  1.9122433164412398  4.1969607746667004   F   F   F
  8.5164697856478497 -1.9732379051797901  4.2869801096066702   F   F   F
  3.1308639956539501  7.1769237036448885  8.7073620933580393   T   T   T
  7.5354429610656499  4.5111262414308699  8.6589417991859712   T   T   T
  5.3168120926736808  3.2260550955950298  2.0916868788170602   F   F   F
  3.9871371421675401  5.8751995618495396 10.6755440332165907   T   T   T
  3.9215052421491103 -1.7871002893979799  4.2926539765271201   F   F   F
  6.0612909425630210 -3.3586737801336102 10.7309643699374320   T   T   T
  7.5937259518100610 -0.5913197777539301  8.6847179180415406   T   T   T
  3.9473049117684504  3.3522215964950490 10.7201357740679697   T   T   T
  1.6961929585129203  7.1824631739944298 10.7128730563591308   T   T   T
  3.0754867689479299  1.9173441830332891  2.1953668739203005   F   F   F
  3.1097253895046606 -0.6793078122498404  8.6871509141474217   T   T   T
  6.8521143928321804  5.8689046420073288  6.4220422699061404   T   T   T
  2.3565495555424301  0.7984823104541197  6.2932670356889400   T   T   T
  1.5994919073465401 -0.5134685879653502  4.2105758266193805   F   F   F
  2.4158238301442201  5.7765182296827504  6.3855651353129703   T   T   T
  7.7017892410897302  4.5144821194164182  2.1137676487933299   F   F   F
  3.7905545440197606 -2.0406689926609904 10.7926955120814920   T   T   T
  2.4108811673888604  3.1995666904972793  6.4001963040269407   T   T   T
  3.8579979893453600  0.5836011763921797  4.2781421126485597   F   F   F
  8.3869980541514000  0.7262030689219899 10.7965993309997508   T   T   T
  0.9359308477885201  3.2168383822531799  2.1969178725793101   F   F   F
  5.3400357891770209 -1.9041534564875500  2.0917558592520802   F   F   F
  7.7822544619495302 -3.2591774852262301  2.1367210330127300   F   F   F
  1.5930269966858701  4.5044938514067798  4.2208811355935802   F   F   F
  0.8708866059872501  0.7103278327984999  8.6534467165748108   T   T   T
  5.4689796413905505  0.6994289730433596  8.6681302467437504   T   T   T
  5.4215765557725799  5.7522014195622697  8.6499203776752598   T   T   T
  0.1378685674387800  2.0072886344234000  6.3395054272249611   T   T   T
