Pt Pd Ni Co Fe 
 1.0000000000000000
     8.9921849999999992   -5.1708259999999999    0.0003830000000000
     0.0016270000000000   10.3507250000000006    0.0119590000000000
     0.0359360000000000   -0.0006580000000000   22.8809879999999986
 Pt  Pd  Ni  Co  Fe 
  13  17  15  18  17
Selective dynamics
Cartesian
  8.4153259475265898 -4.6142171613754694 10.8163386491171902   T   T   T
  7.5429371820346791 -3.3150717928897495  8.4910154807572198   T   T   T
  3.8926473941698796  5.8072417732380810  4.3159693871508402   F   F   F
  7.7076440764204284 -3.2047268840140397  2.1368646449592896   F   F   F
  0.8919659868102400  5.8528329833377999  2.1248445247008800   F   F   F
  0.9952924816143900  5.9344121558066707  8.5882101170244702   T   T   T
  1.6576189111875901  7.2081423158481899  4.3598324281079899   F   F   F
  1.0083262772605299  3.2934163327337100  8.5260113754660889   T   T   T
  3.9773681327746000  0.6476365179259401  4.3191660271896000   F   F   F
  5.4674873392082697  0.7252729312959200  8.5687974119981689   T   T   T
  7.6333347383499293 -0.5282909854818697  8.6044315715844100   T   T   T
  5.4411117875104091  5.8210938999505100  2.0539632878728500   F   F   F
  0.9179855932040499  0.5659404006583101  2.1948366375929700   F   F   F
  3.1589971930742298  1.9570752954331905  2.2057763772396699   F   F   F
  3.9343837973504794  3.3615825220154303 10.7466611037190596   T   T   T
  8.3881667970881075 -1.8942219292915397 10.8532141658880494   T   T   T
  4.6298127892871701 -0.5936480029463601  6.4139080307062297   T   T   T
  3.2164334947311799  2.0380667127779306  8.5053452192823986   T   T   T
  8.3354015116347302  0.6728052676950009  4.3933557916607500   F   F   F
  8.3555808804298710  3.3874788829637001  4.3573898495222103   F   F   F
  7.5869214052123093  2.0318949530575110  2.2021819905946298   F   F   F
  0.9281865683092598  0.6068113993284401  8.4980768437549798   T   T   T
  6.1964077481476094 -3.1190783578243599  4.2964789820698694   F   F   F
  3.1567828055951299  4.5495687760669901  2.1054256746403701   F   F   F
  7.5626759303705686 -0.6309004554191794  2.2138232657851096   F   F   F
  3.8714574888539692  0.6322288849708900 10.8078221469621294   T   T   T
  6.9853718453880296 -1.8795333205481197  6.3805881022609698   T   T   T
  3.1676335777014200  7.2656575427744201  2.0748226468853397   F   F   F
  4.6254817617652497  7.1114637798164315  6.4978948870049695   T   T   T
  3.1270229330680794 -0.6999123751481198  8.5762385947575197   T   T   T
  5.3489452949793694  0.6404161581209705  2.1746688008105699   F   F   F
  1.6331970066690500  2.0808703417138106  4.3142734083822498   F   F   F
  6.8972521210791990  0.7407834260623705  6.4214349262796597   T   T   T
  1.6824444913805099 -0.5879812704577599  4.3123802459680096   F   F   F
  1.6801408185080799  4.5283942195147402 10.7012318063109184   T   T   T
  0.1597918849276199  7.1871866152203108  6.5029331575968001   T   T   T
  6.1947065152130598  1.9871270376543899 10.6409868949887993   T   T   T
  6.0967505757705300  2.0481131500232497  4.3518079924116497   F   F   F
  3.2398471321234599  7.1158148377293902  8.6240738616863197   T   T   T
  4.7063692010250504  2.0085045644465001  6.3938848701723092   T   T   T
  4.6543461352072697  4.4820727179223203  6.4924639303262097   T   T   T
  1.7034879844702400  7.1985184479403603 10.6833690205642391   T   T   T
  2.4088974569374697  3.2713012080959105  6.4060602456043494   T   T   T
  7.6262986734704983  4.5063213698075604  8.5205010346506196   T   T   T
  0.2384381844814400  4.5206865981476003  6.4034777872310400   T   T   T
  7.0025292617968695  5.7889265973042106  6.4514042945331500   T   T   T
  1.6165461740962197 -0.7087340958031699 10.7159527547845990   T   T   T
  8.4733957988469406 -1.9554813751653397  4.3280409459418197   F   F   F
  2.3408755324065198  8.4563079886860812  6.4420959561657991   T   T   T
  5.4198874999243500  3.2605919067750810  2.2397988968063300   F   F   F
  0.8658955775747699  8.4418835162073389  8.5855979177320290   T   T   T
  3.9279280767473295 -1.8433371463407795  4.3025824200393092   F   F   F
  8.4164653072865292  3.2741689846133508 10.6282185129112889   T   T   T
  5.4037291129775387 -1.9857686440580398  8.6411598052112595   T   T   T
  0.1882581536351000  9.7335167153827609  6.4509522871445792   T   T   T
  3.8591313268223093  5.8847264408085502 10.6627881724754285   T   T   T
  0.1853175192813500  1.9826926478341300  6.3695268932164302   T   T   T
  6.1544526724893087 -0.5910355051598897  4.3944091723549903   F   F   F
  3.2576767813683598  4.6616305108483305  8.5994406359010593   T   T   T
  3.2305414529968393 -0.6061346283992899  2.1565068701422998   F   F   F
  8.4657377495203381  0.7762787907334806 10.6652132103835786   T   T   T
  2.4067902395023495  5.8799910682280805  6.4956236226620891   T   T   T
  7.6536786241495491  4.5593132993905909  2.1592722356552301   F   F   F
  5.3750361684605696  5.8475096621283411  8.5957133648820694   T   T   T
  8.5316893186543581 -4.4180042035717300  4.3640191432824595   F   F   F
  1.6234428884034497  4.5202056186275508  4.3087733152216501   F   F   F
  3.9307066611663797  3.2290883279509806  4.3158992361150998   F   F   F
  6.1552309600891286  4.6064767423170405 10.6111687019579488   T   T   T
  2.3501525795030700  0.7157539118503399  6.3887920899810098   T   T   T
  0.8926285312896399  3.2400570891270806  2.1798970517277199   F   F   F
  7.6916823101049294  1.9931277633525502  8.5618070795801700   T   T   T
  0.9083837285320299  8.4748166560484695  2.1273395105411499   F   F   F
  1.6786199860980699  1.9688741917765205 10.7438206481378096   T   T   T
  6.9242608162966102  3.1917155392788605  6.5080181563597890   T   T   T
  5.5038379806302187  3.2975881662007014  8.5339689259376605   T   T   T
  6.0975506672703697 -0.7016635818540894 10.7245447520867287   T   T   T
  3.8743197781194501 -1.9556075283036798 10.7119716812285084   T   T   T
  6.0973574987649890 -3.2144811153874198 10.6208146163253296   T   T   T
  5.3372487072223587 -1.8134821657717395  2.1674651996858398   F   F   F
  6.1501241100508990  4.5841447629953009  4.2725703926749796   F   F   F
