Pt Pd Ni Co Fe 
 1.0000000000000000
     9.0348150000000000   -5.1878500000000001   -0.0082870000000000
    -0.0577960000000000   10.2815770000000004   -0.0342180000000000
    -0.0094090000000000   -0.0583070000000000   22.9315239999999996
 Pt  Pd  Ni  Co  Fe 
  17  17  16  16  14
Selective dynamics
Cartesian
  4.6010742407742695  7.0854151239680609  6.4817353483905400   T   T   T
  2.2613365936135796  8.3818597239619894  6.3891976410794102   T   T   T
  3.8239752783414902  5.8870920654534213  4.1796454859345005   F   F   F
  8.3859637510690703 -1.9815607092418397  4.2504054727682599   F   F   F
  6.1797350525810906  1.9046024022103705 10.7181213585387400   T   T   T
  5.3417601958567298 -1.8742766868847598  2.2315170744380901   F   F   F
  1.5599283600143903  7.1045104345170209 10.8526681488453889   T   T   T
  3.8604752717258801  0.6277226613462400 10.8236452154307692   T   T   T
  0.1548311756521000  4.4883926941144505  6.4647789047784894   T   T   T
  3.8303538491239797  3.2111309604918401  4.1806483240697005   F   F   F
  4.5963579726835500  4.3659270066033500  6.5140004378160699   T   T   T
  5.3966950961028992 -1.9640815232760500  8.7478270309867501   T   T   T
  7.7144308625757603  2.0553405409815801  2.1166878407740000   F   F   F
  6.9524293866853100  5.7213003005145806  6.5334615465066594   T   T   T
  0.9549652661722100  5.8279637339213304  2.0495320194363402   F   F   F
  8.5061127848411608 -4.5936905434795205  4.2084181779746697   F   F   F
  0.8314392129141100  0.7139061345328301  8.6236839232051707   T   T   T
  3.0130707060930204  1.8846078006032601  2.0489648081850600   F   F   F
  6.9360594396742297 -1.9140119755355602  6.5203006313472596   T   T   T
  3.8276338754185204  5.6117648407057104 10.8244842252683302   T   T   T
  7.6700937781329408 -0.6443774681683297  2.1284115150151899   F   F   F
  3.1265189161962206 -0.6337429526328899  8.6414617511724590   T   T   T
  3.8704313055416901  0.5406607942746700  4.2460580712174405   F   F   F
  6.9260991884903698  3.0684483285307604  6.4392893269265299   T   T   T
  0.9125091756461400  5.8313239724238706  8.6473713439734503   T   T   T
  8.4002501328315304  0.6999976181998903  4.3223185989599395   F   F   F
  2.3834005338901196  0.7305907735567101  6.4206914897746001   T   T   T
  8.4804777211036200 -4.5858281071333904 10.9393868316223397   T   T   T
  5.4135491881258497  5.8045102062469507  2.0249934280727899   F   F   F
  6.1836377157977802  4.4653066085956405  4.2197673472265400   F   F   F
  6.1745805012668695 -3.2575833331494906 10.9606031834744790   T   T   T
  2.3535210211123401  5.7778238258095707  6.4248045960723603   T   T   T
  5.3783086565193203  3.2087141688729601  2.0195530144979901   F   F   F
  7.6718120751489707 -0.6205752455974400  8.7049656164905311   T   T   T
  1.6495142719320199 -0.6720939292419901  4.2427020483958602   F   F   F
  0.9206866733889000  8.4574018685521004  2.0792267786469401   F   F   F
  8.4953478535721008  3.1963075534456000  4.2684233849435795   F   F   F
  8.3771587863589811  0.5786148529316896 10.8167355715535596   T   T   T
  5.3847502469268598  0.6350913278920304  2.1369248363284901   F   F   F
  3.0419857766422003  7.1774459294310002  2.0790778569808896   F   F   F
  7.7322861009001196  4.5563589669944609  1.9888086998149499   F   F   F
  6.8589726646198104  0.6234964544550298  6.4632889910951308   T   T   T
  8.4099523296011700  3.1177723562192594 10.6251381345640894   T   T   T
  3.8947391445540398 -1.9288468570065298  4.3320373152628395   F   F   F
  6.1469776693832205  1.8416134760028604  4.2500179884952596   F   F   F
  7.6106851833869591  4.4204606002775808  8.6873446664122405   T   T   T
  6.1211557056396195 -0.7005982898245897  4.4206661391918693   F   F   F
  0.8906570835045601  0.6256791597498300  2.0793729537431100   F   F   F
  0.1813766840823800  1.9213275569201402  6.4208812097810100   T   T   T
  8.4405887579072605 -1.9730181274912200 10.7223281440167195   T   T   T
  0.0696870025392900  7.1318122660637213  6.4760471001161406   T   T   T
  3.1239877744683899  4.5492304115447197  1.9659857730685597   F   F   F
  0.8885769102528900  3.2106242961704199  2.0994919287167799   F   F   F
  1.6372303812087998 -0.6890694392723001 10.6944139920918300   T   T   T
  3.2227461570976601  2.0515499175817804  8.5761914905867993   T   T   T
  1.6028032878885099  7.1660965421379306  4.2033323918114096   F   F   F
  5.3442240621792898  5.6641327586444703  8.6807701943149898   T   T   T
  1.6074005403529301  1.9284635342836900  4.2163495196929004   F   F   F
  6.1518582374671302 -0.6500497880084600 10.7871984798777998   T   T   T
  2.3518773617512201  3.1828110676994599  6.3978087279444207   T   T   T
  0.9856760552103999  3.2306648476958499  8.5949344970321402   T   T   T
  7.6581630919177908  1.9450955205710703  8.5815422570981994   T   T   T
  4.6731385571980999  1.8150673485962503  6.5187473949565193   T   T   T
  5.3833794554523697  0.7157158941738603  8.5085881163353889   T   T   T
  1.6124767784393501  4.4699709529254505  4.1552772139421403   F   F   F
  0.7223864605448600  8.3861655558949284  8.5515225347186288   T   T   T
  3.8521866680944403 -1.9423287762489798 10.8653648782234491   T   T   T
  4.7051846227601599 -0.6046865102336698  6.4526883665557797   T   T   T
  3.0884936185949003 -0.6639246783699999  2.1129912140466800   F   F   F
  7.7773238895991099 -3.2655852651236201  2.0687029635728997   F   F   F
  3.1470361847316797  7.0416227777751406  8.7353785930230199   T   T   T
  3.8138478157440399  3.1197943697859700 10.6851906952508404   T   T   T
  1.4727426962767800  4.4254684467813910 10.7112922834106392   T   T   T
  1.6225386134641999  1.9901872167533503 10.7237895812072495   T   T   T
  7.6532725751731592 -3.2900828918859695  8.7240140625700491   T   T   T
  3.1415299130152099  4.3674483067560308  8.5831496540544592   T   T   T
  6.1386309054624002 -3.1809642628565000  4.4083608787354303   F   F   F
  6.1494079682019702  4.4503117036137612 10.6119736308191008   T   T   T
  0.1034483333547200  9.5966078355241606  6.4376615901997898   T   T   T
  5.4489324608402701  3.1310290494304107  8.5726285294039499   T   T   T
