Pt   Pd   Ni   Co   Fe                  
   1.00000000000000     
     8.9787924281903368   -5.1385342585044622   -0.0093561089247586
     0.0222506468800407   10.3219254714169502   -0.0044845323529827
     0.0100718683691739   -0.0211110889944790   22.9158264528535121
   Pt   Pd   Ni   Co   Fe
    16    13    19    18    14
Selective dynamics
Direct
  0.3488120268475323  0.1052006800875855  0.3766289010873614   T   T   T
  0.3415748370875960  0.6148253411272153  0.3814213800903878   T   T   T
  0.5921675822296066  0.8708037361277050  0.0955074543001331   F   F   F
  0.0879752412981332  0.1118284337095450  0.3815063314983276   T   T   T
  0.1896434499858159  0.7802386571190993  0.1847712479728330   F   F   F
  0.1917252061595605  0.0460033507915156  0.1911468116128532   F   F   F
  0.6088405686117981  0.3581971571082864  0.3716259236846607   T   T   T
  0.2683395412848449  0.7036831298044870  0.2816304386289938   T   T   T
  0.9345031543083451  0.2828134248383449  0.1896932434183611   F   F   F
  0.1056477806925855  0.8698539965969516  0.0913937855931692   F   F   F
  0.2016156200002822  0.7894051437308724  0.4726858212233880   T   T   T
  0.9307282731948775  0.2826353046713290  0.4722142678628913   T   T   T
  0.8526152675868559  0.8722439467521141  0.0943639752288590   F   F   F
  0.0239137697819387  0.9539015985662176  0.2857408336539137   T   T   T
  0.5204481644571295  0.6976940554266935  0.2826138539253314   T   T   T
  0.3610205631663419  0.1284270294673675  0.0942026753524203   F   F   F
  0.0121328379193386  0.6920243489533010  0.2847810153096995   T   T   T
  0.7619113670220468  0.2086884478543772  0.2855606127162974   T   T   T
  0.2583228486484077  0.4388014060399055  0.2810354075523732   T   T   T
  0.9316452686959735  0.7821095738663928  0.1894945582899439   F   F   F
  0.3471402358829987  0.3614296083102719  0.3777989103328282   T   T   T
  0.9351685739043769  0.7900540399038951  0.4770843845434568   T   T   T
  0.8479435510891307  0.3704881599433278  0.0972922768513698   F   F   F
  0.6039388442685073  0.6158617003706875  0.3801706329716898   T   T   T
  0.6030888602503255  0.8733271090348781  0.3800418530056581   T   T   T
  0.6842063442203212  0.7856065644269989  0.1885849009553695   F   F   F
  0.8569283929624186  0.6147594235688064  0.3796998126822735   T   T   T
  0.7713877171834859  0.9585654307522973  0.2842615169069195   T   T   T
  0.4279486941748090  0.5249893975235835  0.1859241338775774   F   F   F
  0.8523432560255008  0.8653322958260363  0.3789625961153747   T   T   T
  0.0177387107539680  0.2027506662366024  0.2829353432916971   T   T   T
  0.6851502670890000  0.5254875332384188  0.1885789626681245   F   F   F
  0.3474543823866227  0.3697007914843340  0.0939744024672251   F   F   F
  0.4394861693205628  0.2814402666203214  0.4695288296543653   T   T   T
  0.6700857480905462  0.5214593711796935  0.4720960123824005   T   T   T
  0.1039599939541063  0.6094057596028151  0.0971683150847298   F   F   F
  0.9215361297966467  0.0313270043212979  0.4700444841262624   T   T   T
  0.8451407906972577  0.6136123388761803  0.0958480143913576   F   F   F
  0.6003321138931526  0.1189625752109649  0.0969189834081590   F   F   F
  0.0972491764713130  0.6096264683011703  0.3797493281252440   T   T   T
  0.2775170626753971  0.2042521649729973  0.2804033457321977   T   T   T
  0.5138678449191102  0.9553341624665622  0.2809318989800251   T   T   T
  0.6810341338826121  0.0326597858909599  0.4700108023237961   T   T   T
  0.9360987097648910  0.5296995630071758  0.4708302128245142   T   T   T
  0.5991873228493745  0.6100814079138459  0.0945310581717465   F   F   F
  0.5261462965355223  0.4456278508785267  0.2782479035740572   T   T   T
  0.0994542116704409  0.1289233425471181  0.0957951558351766   F   F   F
  0.9377652294615118  0.0419036447128107  0.1887192852593813   F   F   F
  0.4254748714574287  0.5235261519488179  0.4728340306289963   T   T   T
  0.7622028129805627  0.4546503805836996  0.2770823873720130   T   T   T
  0.6814832890276171  0.2830616108683732  0.4655308406426850   T   T   T
  0.5986621218376813  0.1088984039871841  0.3778939291572255   T   T   T
  0.6780572502883846  0.7820574933876803  0.4715840806352083   T   T   T
  0.8478320983148542  0.1221516246934751  0.3793896028940148   T   T   T
  0.1787899890531790  0.2829482196719297  0.1856524671977766   F   F   F
  0.3478405548711266  0.8656803113737006  0.3738616725482846   T   T   T
  0.1799108653999237  0.5255192094578771  0.4706149607455125   T   T   T
  0.2787680583833621  0.9572763294270420  0.2816827590992265   T   T   T
  0.8614601768285736  0.3680501631592554  0.3781589848025094   T   T   T
  0.6746844183883738  0.2759696682108981  0.1871835400219624   F   F   F
  0.1883233656148393  0.2893088465148844  0.4718103822906450   T   T   T
  0.1058679825031490  0.3627036656317486  0.0940363051066484   F   F   F
  0.6052791882494404  0.3784109200009027  0.0985922106656858   F   F   F
  0.7637898815953565  0.6923712644112316  0.2841978067843338   T   T   T
  0.1854942478556225  0.5269070885233091  0.1850888275459468   F   F   F
  0.4370410189320282  0.7912731057141329  0.1872050920619017   F   F   F
  0.6864867212775181  0.0376533067091742  0.1906225047245087   F   F   F
  0.9279099628376386  0.5291801564929557  0.1892820127241137   F   F   F
  0.1900244685969678  0.0528207429707811  0.4743872789761459   T   T   T
  0.3453398942712624  0.6078606419196646  0.0931644188161300   F   F   F
  0.3530456500183874  0.8731608200916838  0.0915308188816795   F   F   F
  0.5113386208280578  0.1961733752571310  0.2790640804636292   T   T   T
  0.0915180666339547  0.3642114541761641  0.3781807745416445   T   T   T
  0.4424769549361400  0.2908573704217332  0.1876202756912519   F   F   F
  0.8570546695070718  0.1195467340838405  0.0949886233584465   F   F   F
  0.0133153691135394  0.4482673200404013  0.2861562390962245   T   T   T
  0.4469920427786320  0.0359685171589348  0.1861973157572052   F   F   F
  0.4545411405209916  0.0431167192790599  0.4677047052500840   T   T   T
  0.1045660110250149  0.8617096691466526  0.3795032511448186   T   T   T
  0.4456547191767855  0.7718161253917838  0.4747283284160547   T   T   T
 
  0.00000000E+00  0.00000000E+00  0.00000000E+00
  0.00000000E+00  0.00000000E+00  0.00000000E+00
  0.00000000E+00  0.00000000E+00  0.00000000E+00
  0.00000000E+00  0.00000000E+00  0.00000000E+00
  0.00000000E+00  0.00000000E+00  0.00000000E+00
  0.00000000E+00  0.00000000E+00  0.00000000E+00
  0.00000000E+00  0.00000000E+00  0.00000000E+00
  0.00000000E+00  0.00000000E+00  0.00000000E+00
  0.00000000E+00  0.00000000E+00  0.00000000E+00
  0.00000000E+00  0.00000000E+00  0.00000000E+00
  0.00000000E+00  0.00000000E+00  0.00000000E+00
  0.00000000E+00  0.00000000E+00  0.00000000E+00
  0.00000000E+00  0.00000000E+00  0.00000000E+00
  0.00000000E+00  0.00000000E+00  0.00000000E+00
  0.00000000E+00  0.00000000E+00  0.00000000E+00
  0.00000000E+00  0.00000000E+00  0.00000000E+00
  0.00000000E+00  0.00000000E+00  0.00000000E+00
  0.00000000E+00  0.00000000E+00  0.00000000E+00
  0.00000000E+00  0.00000000E+00  0.00000000E+00
  0.00000000E+00  0.00000000E+00  0.00000000E+00
  0.00000000E+00  0.00000000E+00  0.00000000E+00
  0.00000000E+00  0.00000000E+00  0.00000000E+00
  0.00000000E+00  0.00000000E+00  0.00000000E+00
  0.00000000E+00  0.00000000E+00  0.00000000E+00
  0.00000000E+00  0.00000000E+00  0.00000000E+00
  0.00000000E+00  0.00000000E+00  0.00000000E+00
  0.00000000E+00  0.00000000E+00  0.00000000E+00
  0.00000000E+00  0.00000000E+00  0.00000000E+00
  0.00000000E+00  0.00000000E+00  0.00000000E+00
  0.00000000E+00  0.00000000E+00  0.00000000E+00
  0.00000000E+00  0.00000000E+00  0.00000000E+00
  0.00000000E+00  0.00000000E+00  0.00000000E+00
  0.00000000E+00  0.00000000E+00  0.00000000E+00
  0.00000000E+00  0.00000000E+00  0.00000000E+00
  0.00000000E+00  0.00000000E+00  0.00000000E+00
  0.00000000E+00  0.00000000E+00  0.00000000E+00
  0.00000000E+00  0.00000000E+00  0.00000000E+00
  0.00000000E+00  0.00000000E+00  0.00000000E+00
  0.00000000E+00  0.00000000E+00  0.00000000E+00
  0.00000000E+00  0.00000000E+00  0.00000000E+00
  0.00000000E+00  0.00000000E+00  0.00000000E+00
  0.00000000E+00  0.00000000E+00  0.00000000E+00
  0.00000000E+00  0.00000000E+00  0.00000000E+00
  0.00000000E+00  0.00000000E+00  0.00000000E+00
  0.00000000E+00  0.00000000E+00  0.00000000E+00
  0.00000000E+00  0.00000000E+00  0.00000000E+00
  0.00000000E+00  0.00000000E+00  0.00000000E+00
  0.00000000E+00  0.00000000E+00  0.00000000E+00
  0.00000000E+00  0.00000000E+00  0.00000000E+00
  0.00000000E+00  0.00000000E+00  0.00000000E+00
  0.00000000E+00  0.00000000E+00  0.00000000E+00
  0.00000000E+00  0.00000000E+00  0.00000000E+00
  0.00000000E+00  0.00000000E+00  0.00000000E+00
  0.00000000E+00  0.00000000E+00  0.00000000E+00
  0.00000000E+00  0.00000000E+00  0.00000000E+00
  0.00000000E+00  0.00000000E+00  0.00000000E+00
  0.00000000E+00  0.00000000E+00  0.00000000E+00
  0.00000000E+00  0.00000000E+00  0.00000000E+00
  0.00000000E+00  0.00000000E+00  0.00000000E+00
  0.00000000E+00  0.00000000E+00  0.00000000E+00
  0.00000000E+00  0.00000000E+00  0.00000000E+00
  0.00000000E+00  0.00000000E+00  0.00000000E+00
  0.00000000E+00  0.00000000E+00  0.00000000E+00
  0.00000000E+00  0.00000000E+00  0.00000000E+00
  0.00000000E+00  0.00000000E+00  0.00000000E+00
  0.00000000E+00  0.00000000E+00  0.00000000E+00
  0.00000000E+00  0.00000000E+00  0.00000000E+00
  0.00000000E+00  0.00000000E+00  0.00000000E+00
  0.00000000E+00  0.00000000E+00  0.00000000E+00
  0.00000000E+00  0.00000000E+00  0.00000000E+00
  0.00000000E+00  0.00000000E+00  0.00000000E+00
  0.00000000E+00  0.00000000E+00  0.00000000E+00
  0.00000000E+00  0.00000000E+00  0.00000000E+00
  0.00000000E+00  0.00000000E+00  0.00000000E+00
  0.00000000E+00  0.00000000E+00  0.00000000E+00
  0.00000000E+00  0.00000000E+00  0.00000000E+00
  0.00000000E+00  0.00000000E+00  0.00000000E+00
  0.00000000E+00  0.00000000E+00  0.00000000E+00
  0.00000000E+00  0.00000000E+00  0.00000000E+00
  0.00000000E+00  0.00000000E+00  0.00000000E+00
