Pt   Pd   Ni   Co   Fe   
1.0
8.9787924281903368 -5.1385342585044622 -0.0093561089247586
0.0222506468800407 10.3219254714169502 -0.0044845323529827
0.0100718683691739 -0.0211110889944790 22.9158264528535121
Pt   Pd   Ni   Co   Fe   
16   13   19   18   14   
Selective dynamics
Direct
0.3372925692364225 0.11483926271747699 0.37360258790762235    T   T   T
0.3501969462589867 0.6061498144679128 0.37379576442805273    T   T   T
0.5921675822296087 0.8708037361277016 0.0955074543001302    F   F   F
0.09618434846859912 0.11351093759097264 0.37406294964987724    T   T   T
0.18964344998581464 0.7802386571191015 0.18477124797283076    F   F   F
0.1917252061595612 0.04600335079151618 0.19114681161285443    F   F   F
0.5972927984354409 0.3681095614246981 0.3735122399560155    T   T   T
0.2655286171601154 0.6933490760430739 0.2784796098646164    T   T   T
0.9345031543083475 0.2828134248383483 0.1896932434183605    F   F   F
0.1056477806925821 0.869853996596955 0.09139378559316763    F   F   F
0.1749483181005306 0.7869251380375226 0.4684099026644932    T   T   T
0.938478410850139 0.2760185984474055 0.46773819890272944    T   T   T
0.8526152675868564 0.8722439467521117 0.09436397522885742    F   F   F
0.013527942711192602 0.9577438521590742 0.2851066831075622    T   T   T
0.5227000076841065 0.7023190641509923 0.281064044219407    T   T   T
0.3610205631663386 0.128427029467368 0.0942026753524217    F   F   F
0.008500030550768681 0.697721035708431 0.2840689372413293    T   T   T
0.7653793022929268 0.20056225512562312 0.27849884659844604    T   T   T
0.2588302578098016 0.4379760774935968 0.27987805984984343    T   T   T
0.9316452686959759 0.7821095738663902 0.18949455828994424    F   F   F
0.3416762693239377 0.3606998614369076 0.3755769167281241    T   T   T
0.9336829678021282 0.7834901882107426 0.4638174723232268    T   T   T
0.8479435510891288 0.37048815994333034 0.09729227685136871    F   F   F
0.6083752105582462 0.621658885282766 0.3776482554542219    T   T   T
0.6077013789477934 0.8724813977712406 0.3712987715191694    T   T   T
0.6842063442203217 0.7856065644270005 0.18858490095536862    F   F   F
0.8519149090284583 0.6211425683556356 0.3779752832642731    T   T   T
0.7745393624260587 0.9527214676509395 0.28020518112407883    T   T   T
0.4279486941748092 0.5249893975235828 0.18592413387758033    F   F   F
0.8577879249047213 0.8667904565137691 0.37469326254955493    T   T   T
0.018115588364423608 0.19508588568319998 0.2789755781677749    T   T   T
0.6851502670890014 0.5254875332384223 0.1885789626681261    F   F   F
0.3474543823866199 0.3697007914843321 0.09397440246722222    F   F   F
0.42299910476620467 0.2875353301146347 0.4655869222177199    T   T   T
0.6930506329929041 0.5428699750194209 0.4687441742564663    T   T   T
0.10395999395410752 0.609405759602813 0.0971683150847286    F   F   F
0.9384189996433883 0.022905439615775947 0.4658058197131776    T   T   T
0.8451407906972542 0.6136123388761823 0.09584801439136056    F   F   F
0.6003321138931514 0.11896257521096662 0.09691898340815878    F   F   F
0.09406615816140826 0.613943073989589 0.37786383105144594    T   T   T
0.2574075079356118 0.207760601439916 0.2825404072840538    T   T   T
0.527771639807456 0.9539858793298484 0.27904243736067624    T   T   T
0.6860390369385242 0.03034885051839967 0.4650425161969196    T   T   T
0.9285672798446859 0.5418931069284466 0.46857531247557516    T   T   T
0.5991873228493713 0.6100814079138479 0.09453105817174891    F   F   F
0.5143678185886028 0.44808833438608464 0.27977759746833686    T   T   T
0.09945421167044267 0.12892334254711768 0.09579515583517655    F   F   F
0.9377652294615093 0.04190364471281021 0.18871928525938164    F   F   F
0.4393242487266095 0.5216274940874831 0.4683584164904445    T   T   T
0.7602614548741967 0.4493391980939269 0.27766761470100965    T   T   T
0.6807004433269993 0.2937274482048326 0.4706158967168904    T   T   T
0.600230760134108 0.10949276177984915 0.3720801179434837    T   T   T
0.6922819147741565 0.7839733663739324 0.4651535616646587    T   T   T
0.8539951796706389 0.10872216542516569 0.3694075489541777    T   T   T
0.17878998905317792 0.2829482196719326 0.18565246719777764    F   F   F
0.35078058361442954 0.868539115920929 0.37268488141756734    T   T   T
0.186890636698781 0.5249425606544856 0.46929991647430647    T   T   T
0.26168532235566705 0.9475467194118918 0.281012087172425    T   T   T
0.8474595088932979 0.3611596733404676 0.3712763632930526    T   T   T
0.674684418388374 0.27596966821090063 0.18718354002195892    F   F   F
0.18760890467847316 0.2760393271517015 0.46663496302136315    T   T   T
0.10586798250314676 0.36270366563175044 0.09403630510665097    F   F   F
0.6052791882494423 0.3784109200009061 0.09859221066568737    F   F   F
0.7653206560070006 0.6964883905321099 0.28385718608098337    T   T   T
0.18549424785562021 0.5269070885233076 0.18508882754595016    F   F   F
0.43704101893202607 0.7912731057141313 0.18720509206190117    F   F   F
0.6864867212775213 0.03765330670917267 0.190622504724512    F   F   F
0.9279099628376409 0.5291801564929546 0.18928201272411593    F   F   F
0.17466912470732063 0.024470802090628147 0.4685125083759276    T   T   T
0.3453398942712657 0.6078606419196669 0.09316441881613038    F   F   F
0.35304565001838456 0.8731608200916829 0.09153081888168195    F   F   F
0.5139492215652105 0.1962777492204 0.2782748126834195    T   T   T
0.10783606313255249 0.3552263128915438 0.37044188058676447    T   T   T
0.4424769549361373 0.2908573704217343 0.18762027569125447    F   F   F
0.8570546695070721 0.11954673408384273 0.09498862335844778    F   F   F
0.016023614588472644 0.44225892417008095 0.28144143988187365    T   T   T
0.4469920427786347 0.03596851715893146 0.18619731575720427    F   F   F
0.4240313776474111 0.03408489504760168 0.4715857139701202    T   T   T
0.0869941749581934 0.8690002699104401 0.3774983630505603    T   T   T
0.438552132782083 0.7806911272186844 0.46731971677716044    T   T   T
