SYSTEM = ML
  ISTART = 0
  ICHARG = 2
  INIWAV = 1
  ENCUT = 500
  PREC = Accurate
  ALGO = Fast
  NELM = 300
  NELMIN = 4 # surface = 8, bulk = 4
  EDIFF = 1E-06
  GGA = PE
  LREAL = A
  EDIFFG = -0.05
  NSW = 300
  IBRION = 2
  ISIF = 2
  POTIM = 0.5
  SIGMA = 0.1
  ISMEAR = 1
  ISPIN = 2
  MAGMOM = 18*1.0 15*1.0 16*1.0 18*2.5 13*3.5 
  LWAVE = .FALSE. 
  LCHARG = .FALSE.
  NPAR = 4
  KPAR = 1
  LORBIT = 11
  IVDW = 11
