Pt   Pd   Ni   Co   Fe   
1.0
8.9921851088557023 -5.1708264481886879 0.0003833359026629
0.0016273277360570 10.3507253817950122 0.0119587503984177
0.0359356605254804 -0.0006578715460419 22.8809879814014145
Pt   Pd   Ni   Co   Fe   
13   17   15   18   17   
Selective dynamics
Direct
0.9423909904460475 0.03672395478918654 0.4684587416965022    T   T   T
0.8446114458735416 0.11226425619907049 0.3744165815933736    T   T   T
0.43199953540397734 0.7768692555029039 0.1882136123743427    F   F   F
0.8567548523056913 0.11839409922578656 0.09331418445069879    F   F   F
0.0987123978023923 0.6147703196951595 0.09254210173177958    F   F   F
0.10984140832735455 0.6178255374057796 0.37660090363211074    T   T   T
0.1834375352846782 0.7880405458972882 0.1901289439038972    F   F   F
0.10309746109758555 0.3675944763555774 0.377152207217398    T   T   T
0.4415088751120301 0.2831421188571113 0.18861120949963692    F   F   F
0.6025419227379601 0.36818397213520687 0.37099934459446177    T   T   T
0.8533259750291768 0.3596178411952071 0.37523722848964897    T   T   T
0.6045801006934025 0.8644158853993881 0.08930532869982849    F   F   F
0.10168484270954219 0.1054803494833903 0.0958672020594432    F   F   F
0.3508543365937967 0.3643556734538025 0.09620583780315277    F   F   F
0.4287624895273535 0.5357881532120433 0.465695289046927    T   T   T
0.9350512926752884 0.2727591382078947 0.46835630457763583    T   T   T
0.5227023004164557 0.20097325195345042 0.27988949997348717    T   T   T
0.3522179816938264 0.3771722692613947 0.3754685340940552    T   T   T
0.9260989873827393 0.5276565797121456 0.1917177202344081    F   F   F
0.9283022731235328 0.7910260818724411 0.1900081586943247    F   F   F
0.8432288827950838 0.6175555683421851 0.09590817399902574    F   F   F
0.09056179062847444 0.11811988504804484 0.37602884688907773    T   T   T
0.6883301347069966 0.04253620412948502 0.18774131469040367    F   F   F
0.35058083573640253 0.614683668876163 0.09168924314995078    F   F   F
0.8405768130791761 0.3589738381150178 0.09655214440559702    F   F   F
0.42376128069905794 0.27247783081948246 0.4700686954563835    T   T   T
0.7687941449834513 0.2073043640684689 0.2799807108872331    T   T   T
0.3517458371476156 0.8776712213036219 0.0902142817464596    F   F   F
0.5147023074689124 0.9543357216379014 0.2836385827732644    T   T   T
0.3534090760803084 0.11214057158842107 0.37544752430917827    T   T   T
0.5943998155558007 0.35881705495436983 0.09484512349646426    F   F   F
0.1808184160877063 0.2913781294399703 0.18839743780520718    F   F   F
0.7619456743320396 0.44888715087238473 0.27989938032233375    T   T   T
0.18634106921206467 0.03629504194745247 0.1884479339341886    F   F   F
0.18313664298038437 0.5236457430784435 0.4655501722322755    T   T   T
0.014463208663126738 0.7015270703912081 0.28287413113631926    T   T   T
0.6842791910220799 0.5329360938194004 0.4656764293060561    T   T   T
0.6771495384852385 0.536161527250762 0.18990162316878453    F   F   F
0.3599724278955007 0.8664004505607464 0.3762511639915916    T   T   T
0.5238205945070689 0.4513761506892603 0.27956359968444117    T   T   T
0.5163872545736943 0.6893734494167699 0.2837765679899327    T   T   T
0.18941329747110952 0.7890068796146791 0.46702073493276997    T   T   T
0.2658068542175334 0.44772525560202775 0.2805781212448913    T   T   T
0.8466127362157276 0.8614517714790916 0.3724661727172282    T   T   T
0.022262523015231985 0.44615289336736885 0.28098791580978005    T   T   T
0.7763859958330845 0.9505240502634076 0.28192006256427465    T   T   T
0.17885123664318173 0.02530925170513486 0.46946303858337884    T   T   T
0.9415004581412713 0.2814274428625766 0.18899160626355652    F   F   F
0.263191986858145 0.9467142404908804 0.2803085285890705    T   T   T
0.6022317923058493 0.6158691175231358 0.09755711447390192    F   F   F
0.09558800316815595 0.8628957694171923 0.37482523825607544    T   T   T
0.4360571924566086 0.039761699890656484 0.1880137328052753    F   F   F
0.9320514740736169 0.7849253483451295 0.46556058427397506    T   T   T
0.6039240289232392 0.10786206709084735 0.3751102378678275    T   T   T
0.01850382959306941 0.9490464004369074 0.28065672958451005    T   T   T
0.42620931283843805 0.7802991304348917 0.46682258118856096    T   T   T
0.016038987713042657 0.20018740819483338 0.28011098358833564    T   T   T
0.6836040429644488 0.2844137265013668 0.19189494576625787    F   F   F
0.3570907964983782 0.6264476021298124 0.3772174253004883    T   T   T
0.35886279434739515 0.12072046766229716 0.0941797534039587    F   F   F
0.9416486244418841 0.5427644100363667 0.46607935680131013    T   T   T
0.2661500426491278 0.7038187636764013 0.2838944272274111    T   T   T
0.8506159641554332 0.8654236460231526 0.09390315208768797    F   F   F
0.5989878051105268 0.8679406654221495 0.37585963075818335    T   T   T
0.9480188349157266 0.04677563241051384 0.19068654946276684    F   F   F
0.1796925978523155 0.52648375110398 0.18803419696342574    F   F   F
0.4362761960268278 0.5299262179628476 0.18833953900196337    F   F   F
0.6822956621044218 0.7874510224902997 0.463249533631187    T   T   T
0.26440498187686906 0.20080322310033452 0.2794447563326038    T   T   T
0.09882159798503859 0.36240060473289 0.09508003519299237    F   F   F
0.8499215382889289 0.6164214697233359 0.37241873284798677    T   T   T
0.10049227883368798 0.8689734916428308 0.0925182511280216    F   F   F
0.18197159369264906 0.2827794295516216 0.46756054034051453    T   T   T
0.7695324480462915 0.6893385142819558 0.28446950919436803    T   T   T
0.6128395856761417 0.6235520881475606 0.37258641955782523    T   T   T
0.67651492857376 0.26795761726337514 0.4695516946550318    T   T   T
0.42776629857679804 0.028500857055210927 0.46869513208139535    T   T   T
0.6816842672084925 0.029999698049178056 0.4618776617807978    T   T   T
0.5931428396702719 0.12111407791740637 0.09465455263868176    F   F   F
0.6830545754285879 0.7841212814646206 0.1863088948146773    F   F   F
