Pt   Pd   Ni   Co   Fe   
1.0
8.9788379997950187 -5.2082127746503204 -0.0213961858254820
-0.0412479304400065 10.3512200080472159 0.0130202833518723
0.0054108898975044 0.0005434299803908 22.9185651302353932
Pt   Pd   Ni   Co   Fe   
14   17   16   18   15   
Selective dynamics
Direct
0.8523091214144999 0.8627617361399668 0.37436392994283546    T   T   T
0.4344401369888245 0.5425554785193808 0.46857837857702517    T   T   T
0.34367026394989264 0.6215412182933681 0.3719301342020507    T   T   T
0.3427263169013756 0.8585061208372363 0.37612883745690895    T   T   T
0.020388802386250873 0.6988469352373413 0.283956789773729    T   T   T
0.7693577622993165 0.20460636047184466 0.27761297339666197    T   T   T
0.8504927111814161 0.8735881888603998 0.0943359574738535    F   F   F
0.2633115904912549 0.945064234287631 0.28514598277298797    T   T   T
0.36165748756491334 0.8706931395977371 0.09383581812211164    F   F   F
0.5134698025834614 0.44790369942202196 0.27772494555741206    T   T   T
0.8445639830221051 0.6174209548017271 0.095495592305539    F   F   F
0.10476018492810901 0.6147901478607315 0.09701472836023106    F   F   F
0.4366500345944587 0.5426820667006722 0.18418520697985238    F   F   F
0.935743458028033 0.5427242652628755 0.46601522594471695    T   T   T
0.6804691354312369 0.27312761833562194 0.4705470695768004    T   T   T
0.019456058441536472 0.20943621214619804 0.28045154827020047    T   T   T
0.8451480049245894 0.1095976379415517 0.37883593772437285    T   T   T
0.3520721131719487 0.36526496333319375 0.0946498476278533    F   F   F
0.8589148939336491 0.6276201962528773 0.3710119078415061    T   T   T
0.6835524288670513 0.5308442388153808 0.46707615927176793    T   T   T
0.5089447166434987 0.19442528283810914 0.279640043559482    T   T   T
0.18004111248075363 0.2791426940278878 0.18692365054550178    F   F   F
0.7643364165219054 0.9474445526802776 0.2783362414513581    T   T   T
0.6094984410299641 0.621858042084505 0.3725121601473017    T   T   T
0.8455447157981684 0.35663978174285954 0.09700539846853505    F   F   F
0.2650499763409926 0.19375423308316167 0.2799055854078093    T   T   T
0.6776362234688633 0.033727344610862416 0.4717821084358253    T   T   T
0.3548117233869521 0.11771670567937804 0.09403587048598253    F   F   F
0.43419202061240736 0.27606010416441445 0.4696979339035833    T   T   T
0.18486628482468578 0.786021451780903 0.19242816338021604    F   F   F
0.3519692126646031 0.3635736608588869 0.3734707238984645    T   T   T
0.6008861113145211 0.3663424793702164 0.09791609972639696    F   F   F
0.18128705840742737 0.5378613151943984 0.46281651448458583    T   T   T
0.6057457996700992 0.11439998518229264 0.09319978008190409    F   F   F
0.43911630133440094 0.7883388189021666 0.18491982237257962    F   F   F
0.2611368480853952 0.45564580906071467 0.2822552313409471    T   T   T
0.5928371832978728 0.861367754859783 0.3771299609705018    T   T   T
0.10076634949253745 0.10728210622791982 0.3747550848381754    T   T   T
0.4369326120184256 0.2789205029553195 0.18697222966772134    F   F   F
0.17727859320705786 0.27819712085000525 0.4701758982674236    T   T   T
0.9288475075347847 0.03034346517189029 0.18499012913474594    F   F   F
0.0951803283649687 0.35816870972001275 0.09638963080900036    F   F   F
0.8558264782495792 0.37259375873403316 0.37400050732679324    T   T   T
0.25633333305286743 0.6914286285577813 0.2832025915780291    T   T   T
0.18419531523337251 0.03216769424357678 0.18642768661165762    F   F   F
0.3522376210066688 0.6179150680201599 0.0938747235305111    F   F   F
0.772242057175568 0.6990569270918602 0.27752292039799137    T   T   T
0.09976373082754192 0.8559826818859199 0.37538378751482376    T   T   T
0.687311576122748 0.7848499882966892 0.18546354017330488    F   F   F
0.9188988266307343 0.27539543456956433 0.46975091077004355    T   T   T
0.17711898673159318 0.527983353719656 0.19040337279552477    F   F   F
0.43704126520421627 0.797279243388995 0.46485431172952524    T   T   T
0.6004569793542396 0.3593490221138218 0.3761838843719395    T   T   T
0.9266637217845487 0.2800998504130566 0.1884301483957018    F   F   F
0.9249224064477232 0.7777091834564557 0.18876203609798686    F   F   F
0.18698785056881786 0.02441011323723234 0.47003870838095824    T   T   T
0.5980494571726042 0.6266630803118833 0.09211381533724909    F   F   F
0.02218495303249598 0.4563851073358047 0.2796972074164345    T   T   T
0.5070275641911549 0.9436881877050499 0.2789186882168651    T   T   T
0.43611864064772615 0.03129861309571267 0.4725224664299852    T   T   T
0.6899618400144232 0.7970214814427287 0.47087613978395243    T   T   T
0.5997276822881934 0.862479648534859 0.09505124228858268    F   F   F
0.8463206583458537 0.11567147196207776 0.09840293177004815    F   F   F
0.02104348323236186 0.9407691068123348 0.27756675606623155    T   T   T
0.5883163771758695 0.10808803469870466 0.37872428305844025    T   T   T
0.34599485389183904 0.10941166020084243 0.3736188817294075    T   T   T
0.5085522105687267 0.696970873280347 0.28096534227756836    T   T   T
0.10833050990642322 0.3780022944131293 0.37113500660008564    T   T   T
0.4362860048133598 0.036374609446354546 0.18604810993906828    F   F   F
0.10019525661958807 0.1112913083433024 0.09491663969164435    F   F   F
0.9379137720920395 0.529597716883749 0.18907929009087435    F   F   F
0.10573358188728624 0.6286942479563193 0.37072034411270505    T   T   T
0.6854633078245033 0.5407050616459278 0.18600785027172811    F   F   F
0.7742355234226607 0.4565381019350124 0.27752136459223375    T   T   T
0.6879448333944073 0.03087748095441497 0.1825549609548516    F   F   F
0.9356000446445879 0.7870119277609684 0.46495369509590107    T   T   T
0.9309730464980286 0.03340698295306191 0.4723522092859446    T   T   T
0.1026614950423082 0.8703045820988896 0.09576701056169577    F   F   F
0.19413451233979137 0.7878320735551398 0.46420121520844854    T   T   T
0.6754743853134971 0.27605733195769855 0.18511606698090777    F   F   F
