Co Fe Ni Pd Pt                          
   1.00000000000000     
     8.9112807099254088   -5.2337367725111879    0.0009778011196095
    -0.0044731217872556   10.4672096307742812    0.0212118324744331
     0.0434840564230031    0.0105649966082481   12.9499196650932475
   Co   Fe   Ni   Pd   Pt
    19    19    19    19    20
Direct
  0.5070835433314347  0.1866872023902357  0.4980997483645427
  0.1831411601258294  0.0275585305532275  0.8216066166289999
  0.8663554728215186  0.1330015361886174  0.6633813169949850
  0.1837574354567603  0.7827604891758158  0.3275981481694316
  0.1104158583145225  0.6288029729148030  0.1706307748026339
  0.0155455142725427  0.9518149005398270 -0.0019127824465786
  0.1886032403085895  0.5328112848911589  0.8333773397512141
  0.7687981853969753  0.2027008723222690  0.5041419748459894
  0.3483852248837563  0.8660430558902980  0.6634982967450643
  0.4320790347229518  0.5343987851520804  0.3334293313716750
  0.9410794455666446  0.2965591035418382  0.8237719996245932
  0.0219793185258804  0.2096957466141291  0.5089537872623814
  0.3393088140067996  0.3632879484845795  0.1653222843382836
  0.0182323380261283  0.4396975363391042  0.5053998333599861
  0.8490253673641128  0.6096994778613841  0.6733677305774051
  0.3435842590066630  0.1099612672045652  0.1647364173490526
  0.3417888485010295  0.8650874356192311  0.1710075500702726
  0.3555302174869217  0.3758649559809446  0.6559088577125586
  0.2743351231096474  0.9579709390732489  0.5046692676341862
  0.5065409965826270  0.6919599066434422 -0.0013088472645434
  0.6777282901707230  0.0310726081732452  0.3388961790686598
  0.1164301963863114  0.3803571951739486  0.1642984872948142
  0.6789709429679748  0.5364050135303510  0.3362269780134307
  0.1136117259558981  0.1162231851411273  0.1622253110607653
  0.3428449645488483  0.1139226840697207  0.6597039655394291
  0.5825479831626853  0.8620952911169464  0.6648540372802688
  0.4244079602277842  0.7850902079211867  0.8244249242242759
  0.4272876649447935  0.0245443873282285  0.3365332909680677
  0.6044453235532169  0.3745403652857812  0.6623004483458095
  0.2577326462893049  0.4422026994069952  0.4997858218588380
  0.7759714902317503  0.9572929793761134  0.9984063077973232
  0.6815193797575235  0.2724768449648170  0.3394914473879203
  0.9245912322654418  0.0248950959404062  0.3359396018345206
  0.5027638110306440  0.4362658328693531  0.5007279328039809
  0.1012236611804845  0.8678510064416333  0.6687770937665865
  0.4222498330445023  0.5295359721431244  0.8290112913123071
  0.5932677684968759  0.6049952098562761  0.6661160497829870
  0.8640353687247251  0.6222969836302005  0.1649882096128064
  0.0194784637244996  0.4503320871929204 -0.0101936628956034
  0.5133697703406213  0.9563871829488713  0.4972497274703051
  0.3412919698644842  0.6114255898588575  0.1695629887987112
  0.1058456754000968  0.3668499016915201  0.6613314943881076
  0.4258767625425436  0.0280013549152045  0.8269562676545524
  0.9265908871354200  0.7775186392289671  0.3330199944099463
  0.1831156615009971  0.5319745572682306  0.3325294732705473
  0.9311233215312656  0.7763819716618727  0.8309341831238850
  0.2722129595108584  0.2026644689417331  0.5054012320961044
  0.6856034022956328  0.7831289956446142  0.3355713967250248
  0.8553565877559973  0.3627855594397552  0.6622821186050147
  0.2669661676063115  0.4546647179896794  0.0009656178965894
  0.1046329343686780  0.8593733798567083  0.1666031505060578
  0.7698921012217866  0.2007046057199351  0.9953302239903353
  0.6867361372432417  0.5395076751025549  0.8238959728247280
  0.3550358286298565  0.6152205832464753  0.6731514821725506
  0.9369765627316980  0.5352990309973488  0.8306762788857461
  0.0138596521013571  0.7004839540645492  0.0035510838759425
  0.1097646877881170  0.1245047880165830  0.6623500456885349
  0.7771472265504560  0.4561352185614452 -0.0059895735198984
  0.0250473727735067  0.9622168345678382  0.5012498055688622
  0.5089730573189202  0.6913063144412701  0.5034831187976899
  0.5987657106663719  0.8633108613067209  0.1661166840338935
  0.5942406244900250  0.1151957483215757  0.6574495662419187
  0.2607823751552176  0.2000401628386499 -0.0032739826517214
  0.1807575812160583  0.7833210652112140  0.8308741007084733
  0.8495793222162269  0.8636910395011128  0.6670486467373901
  0.0152285007297750  0.2081018292793293 -0.0045543978460910
  0.2655790968809585  0.6990134484512381  0.5010926201063770
  0.1842528166225242  0.2900953530661455  0.8222246788947040
  0.9347751318436448  0.5367529913130101  0.3302860294091687
  0.2579082523886219  0.6882022382713167  0.0024306086828948
  0.1858341479602465  0.2839013749919462  0.3338571710009880
  0.7634553276034225  0.9583183920138786  0.5018393373014998
  0.4367583957573142  0.2804396546275283  0.3378761394402497
  0.8651068422415800  0.8667527680887157  0.1702809523617060
  0.4342131049039298  0.2858909296315232  0.8184466411166192
  0.6929141104936259  0.2934884462540661  0.8217948995444948
  0.6660961518673478  0.7735082647362072  0.8279472705263229
  0.5949698220355080  0.1127775848556197  0.1734182199767648
  0.1786544925641710  0.0220864290340072  0.3280564046271545
  0.7586176929110767  0.6912989917498004  0.5004270338564831
  0.8689593714305009  0.3758891206361119  0.1614468049599517
  0.7727487676285931  0.7106455527936366 -0.0029879675939574
  0.9318688775684960  0.2788247888851760  0.3433608935152672
  0.0989760764586254  0.6076416989110595  0.6700044544024117
  0.7571007685537586  0.4360740532262388  0.5017743261391460
  0.5930879892904573  0.6114180957818306  0.1719916951370804
  0.6011751043181116  0.3666795009032982  0.1705125379340080
  0.0197465108905255  0.7029059487211534  0.5007767136309301
  0.5125359895942836  0.4553412944464187 -0.0061270463664193
  0.4290657724071613  0.7813179539199254  0.3316306194108353
  0.5185441587611477  0.9415529446431716 -0.0052229452937004
  0.2547115737899292  0.9440153806692428  0.0008482591034560
  0.6866583824724669  0.0383581969435582  0.8260569250203799
  0.5166615144454613  0.1973652231115252  0.9943320226582660
  0.8647818895442336  0.1184472471915041  0.1696166012540959
  0.9402309216113853  0.0305405045653391  0.8299380378403092
