Pt Pd Ni Co Fe O 
   1.00000000000000     
     8.9854612927610127   -5.0959698673116520   -0.0474918411608053
     0.0623368775592936   10.3068071260243670    0.0500466976653703
    -0.0043335099202507    0.0474518559695956   22.9426093011957377
Pt Pd Ni Co Fe O 
16 15 16 17 16 1 
Selective dynamics
F
  0.4338038385328957  0.5355326033166037  0.1908876514225994   F   F   F
  0.8549988030075599  0.6146503021553351  0.3714259367889812   F  F  F
  0.1897386556907661  0.5273707404042838  0.4656379849709449   F  F  F
  0.3510127394463902  0.3686457164187082  0.3719885606171192   F  F  F
  0.9314845070020326  0.0346341532264915  0.1867704213266848   F   F   F
  0.5189639857125302  0.2108447460429179  0.2843442058408318   F  F  F
  0.2601894258767666  0.9527934776323072  0.2848511509068192   F  F  F
  0.8440642199356092  0.1078774487949584  0.3742452954722879   F  F  F
  0.1789283917634776  0.7822252814688540  0.1859041268734245   F   F   F
  0.2702130640258399  0.6972098541255237  0.2839558675100389   F  F  F
  0.4280849068316002  0.0498601647521468  0.1833819783892849   F   F   F
  0.9320543169184714  0.2778621095794654  0.4701529252997270   F  F  F
  0.6017680394904490  0.6254913426113227  0.3735823250355325   F  F  F
  0.1802174212213278  0.7782159159985421  0.4673752900042396   F  F  F
  0.1036632566894080  0.1108770407273514  0.3711997807795087   F  F  F
  0.6717446286357998  0.0323885360493605  0.1852740405631721   F   F   F
  0.6054679107679988  0.6207508138068931  0.0926957157187829   F   F   F
  0.7707017526460842  0.2042748009131231  0.2816613459559811   F  F  F
  0.8539784214996899  0.1207450970291859  0.0878025850617590   F   F   F
  0.3421580180189352  0.3600808903478452  0.0915526561292026   F   F   F
  0.1835705899060642  0.0386463428625239  0.4755762438982032   F  F  F
  0.1857026266585891  0.2787895725533787  0.1881430193641194   F   F   F
  0.6861151049429904  0.5274445511539119  0.4731530385247548   F  F  F
  0.6791986542771866  0.7824284903922987  0.1887610789211962   F   F   F
  0.6017462854418696  0.3562217831088788  0.0961242623437286   F   F   F
  0.3560294163685214  0.8709435530468639  0.0918203875713672   F   F   F
  0.6909357743441845  0.7962391429237281  0.4712296227721444   F  F  F
  0.4410514554096789  0.0368485720729933  0.4726489459076424   F  F  F
  0.9253875216307605  0.7744676417425254  0.1852913040635542   F   F   F
  0.1786169466013305  0.5317229826904324  0.1853441123765478   F   F   F
  0.9287504375357472  0.2907725949984012  0.1847932989379046   F   F   F
  0.0075469086432048  0.9463495619660894  0.2799041501071706   F  F  F
  0.8509259174965341  0.3666794286733254  0.3729616114559505   F  F  F
  0.1004023282127449  0.1115129664350150  0.0929859370243733   F   F   F
  0.8512941104619429  0.8649577099031731  0.0902429214611971   F   F   F
  0.3500896502861650  0.6172770076886778  0.0939998160119018   F   F   F
  0.0996850376122112  0.6121616573083362  0.3713789268788067   F  F  F
  0.6868407584272035  0.2836704140520936  0.4631761506236461   F  F  F
  0.0110440409671767  0.6939565335189996  0.2797009647353760   F  F  F
  0.7674694172975686  0.7010041632790983  0.2808334566019201   F  F  F
  0.9348864689753612  0.5287005390381275  0.4646786253927475   F  F  F
  0.4379212820974995  0.7815284945807665  0.4635301466799064   F  F  F
  0.5233117511436712  0.4594655622754870  0.2813627304130247   F  F  F
  0.6806590337627512  0.5243288378735826  0.1907561470017995   F   F   F
  0.8559449423265084  0.8661218865416485  0.3723782540224528   F  F  F
  0.8594653301215232  0.3750034047278419  0.0920386620837306   F   F   F
  0.6839796132932108  0.2911417451632943  0.1890493812180765   F   F   F
  0.6009997223082801  0.3567760267728388  0.3777833252649924   F  F  F
  0.0187617424701472  0.4512662327111115  0.2832769215928198   F  F  F
  0.8567267912924450  0.6153530873712683  0.0949370563684724   F   F   F
  0.1013085571958475  0.3748639056706860  0.3687083926295589   F  F  F
  0.4354027367880670  0.2848311257202195  0.4632241189780466   F  F  F
  0.2695614261110664  0.2052304469306656  0.2790533486028333   F  F  F
  0.0949970029933525  0.8676879377143720  0.0929438406530636   F   F   F
  0.5212912975755410  0.9481678938836542  0.2819596213369056   F  F  F
  0.4309298675980315  0.7871899863084977  0.1879288007273914   F   F   F
  0.6021831190576137  0.8690600330318006  0.0888546206471261   F   F   F
  0.5969931273742299  0.1167946891620314  0.3769780201299342   F  F  F
  0.7628657718648356  0.9418970968592648  0.2830077853041644   F  F  F
  0.2626890088929874  0.4440051137607002  0.2828926566697349   F  F  F
  0.3455456324403124  0.6186445883623817  0.3747682030425620   F  F  F
  0.1892415705416140  0.2853453467293338  0.4634640569312388   F  F  F
  0.3604887076748966  0.1188276576693690  0.3776969594328785   F  F  F
  0.1002884036452514  0.3766599789156402  0.0869795340977078   F   F   F
  0.6773302987227910  0.0354231435200481  0.4648453132424243   F  F  F
  0.4421001066925072  0.2961582046765514  0.1912700430144625   F   F   F
  0.9347169358931109  0.7822219464248140  0.4655832267871563   F  F  F
  0.3348368846310379  0.1076663144520680  0.0879097022250903   F   F   F
  0.9411994173200096  0.0327850233010361  0.4661352407650490   F  F  F
  0.0980416485663582  0.6153564054791616  0.0930488081643048   F   F   F
  0.4326030145566729  0.5264189194823123  0.4671050533373893   F  F  F
  0.3553685611878207  0.8686099635993857  0.3767354192635298   F  F  F
  0.0239461483654539  0.2038782192371424  0.2805619281547453   F  F  F
  0.9218557911299854  0.5299108251976890  0.1854620451499187   F   F   F
  0.7710713895035025  0.4573209550337999  0.2787101719161720   F  F  F
  0.5893911954077233  0.8672588328884567  0.3705552721469595   F  F  F
  0.5187195336928969  0.7028760019838979  0.2814118192457499   F  F  F
  0.1017726390746660  0.8626699428852599  0.3747993896623590   F  F  F
  0.6069553436585764  0.1154715010842011  0.0868769692077578   F   F   F
  0.1763600039293536  0.0308978793898902  0.1858252003559144   F   F   F
  0.35341651672683794  0.6118106441299216  0.522087289682521   T   T   T
