Pt Pd Ni Co Fe O 
   1.00000000000000     
     9.0439206520053101   -5.2487887356014662   -0.0280310963724700
    -0.0988166905319107   10.3332568937110505   -0.0160674281162532
    -0.0250667875109199   -0.0350784378225837   22.9278617013677071
Pt Pd Ni Co Fe O 
15 16 17 18 14 1 
Selective dynamics
F
  0.3352804693670481  0.8470293694809469  0.3730318256154158   F  F  F
  0.5219140291634359  0.2062077430332985  0.2794521809715883   F  F  F
  0.4346303508689802  0.3005911251640321  0.4698696104248140   F  F  F
  0.8492785456186227  0.1128460681467547  0.3721682464994406   F  F  F
  0.0132091086545261  0.9389002675347932  0.2852085011332064   F  F  F
  0.9303138718071438  0.2787108676896679  0.1866925645569495   F   F   F
  0.8431247583924915  0.6181836916026597  0.0940524918773207   F   F   F
  0.3416428774402301  0.1152275334817256  0.3757666045695940   F  F  F
  0.3516773134765501  0.1190479588839679  0.0957887272006417   F   F   F
  0.0990785228950486  0.1170137197058949  0.0966904209687200   F   F   F
  0.1128768945572816  0.3747443915024817  0.0910780380726450   F   F   F
  0.0258606871500406  0.4580493284709377  0.2833691928908243   F  F  F
  0.9433627333556671  0.2979061967503012  0.4702035264893353   F  F  F
  0.9303486813990085  0.0256162119741543  0.4693737124161735   F  F  F
  0.5197692414835131  0.9387115666020214  0.2787426943907617   F  F  F
  0.5955919403039971  0.3705265418574655  0.0959383794704536   F   F   F
  0.7729521919240063  0.4670910200122353  0.2818377590911313   F  F  F
  0.9215552579545871  0.7685812015654321  0.1926816464603363   F   F   F
  0.4327177059692033  0.0247767549909170  0.1853753685675699   F   F   F
  0.0183385915211774  0.1990604417581439  0.2807414627396040   F  F  F
  0.1824400182638886  0.0335942384012449  0.4752131696760143   F  F  F
  0.1011620230663794  0.8665039674260271  0.0985425080400333   F   F   F
  0.8460762787016094  0.3637065439466269  0.0896465293660498   F   F   F
  0.6688943794844788  0.0164663486492137  0.4720742289516812   F  F  F
  0.5949782872166836  0.8617933568986302  0.0960352437336027   F   F   F
  0.8445878583256246  0.1105527378977840  0.0907785383962789   F   F   F
  0.4328459906820754  0.5338770141640836  0.1864783986593821   F   F   F
  0.2703350252235298  0.2072733312568624  0.2782725544393807   F  F  F
  0.6827576437975900  0.2942473873085439  0.4728742741873718   F  F  F
  0.1775523739262298  0.7692011281016754  0.4737180698149919   F  F  F
  0.6000941875103845  0.1180539861509213  0.3749270495543475   F  F  F
  0.6001801513158134  0.8523987985679103  0.3718619012909949   F  F  F
  0.1122954179626134  0.6235815207631674  0.0954216624217850   F   F   F
  0.4331519326503539  0.2857675349088709  0.1876529489907881   F   F   F
  0.5981276599695917  0.1127775682416186  0.0929344975119264   F   F   F
  0.1804906768087164  0.0299413712733028  0.1914006741236207   F   F   F
  0.6773545977636125  0.7741809515500094  0.4601500966613254   F  F  F
  0.6857468011597179  0.5422112185211465  0.4612463759469502   F  F  F
  0.3491217123470711  0.3742607978410668  0.3719426132653759   F  F  F
  0.5986657224686999  0.6125735788969544  0.3708292916603802   F  F  F
  0.3553467461813185  0.6185528863286223  0.0915482856202772   F   F   F
  0.1839720174357211  0.2816226957230512  0.1871698236082011   F   F   F
  0.5198374073847426  0.6952490912319135  0.2812870203856972   F  F  F
  0.0997278051351132  0.1192318134351408  0.3762548881864470   F  F  F
  0.1845223061765751  0.5343489478183514  0.1881273721529340   F   F   F
  0.8457351664318190  0.8568881436376909  0.3743276942844936   F  F  F
  0.8519494574298198  0.6192486440636746  0.3760396947010238   F  F  F
  0.4238661835118336  0.7734526641898753  0.1860654338803940   F   F   F
  0.5175375249667454  0.4590289376846760  0.2812488339558325   F  F  F
  0.6900167024583439  0.2925910494569806  0.1878227502887242   F   F   F
  0.0850466425862701  0.6061242109765578  0.3786716916471418   F  F  F
  0.6010474922652378  0.6213842804237331  0.0933652319598082   F   F   F
  0.6804643664778496  0.7859127560018848  0.1889575912921586   F   F   F
  0.6875561163386266  0.0265701146925608  0.1895030647113813   F   F   F
  0.2707305797446095  0.6965662160412592  0.2758544390513541   F  F  F
  0.7636707870027576  0.9417367604410473  0.2788246769494538   F  F  F
  0.7664749586756974  0.1974864356953509  0.2764644732542162   F  F  F
  0.8392123693655336  0.8597976744282221  0.0947162500211221   F   F   F
  0.4333245160704485  0.7612839199518455  0.4591178230828831   F  F  F
  0.1885358094581066  0.2927479022805625  0.4609676225677453   F  F  F
  0.3584700064107693  0.8668355303275632  0.0911325499773028   F   F   F
  0.9237969085039012  0.5356031691602110  0.4626291232741222   F  F  F
  0.1150051736710699  0.3809203749336520  0.3777168364707285   F  F  F
  0.2736997079804445  0.4586703467694019  0.2819641202924107   F  F  F
  0.2631728456072644  0.9389900283643202  0.2790567065399622   F  F  F
  0.7506994277346934  0.7030434126428537  0.2822467749975847   F  F  F
  0.3522858307986639  0.6124691581702898  0.3675095500591239   F  F  F
  0.5969697332346654  0.3773659631657533  0.3745466864689243   F  F  F
  0.1901883295952655  0.5327582918213858  0.4636829867326553   F  F  F
  0.9334330583852832  0.5262258200304615  0.1872695779513407   F   F   F
  0.4281347465425925  0.0261775061553011  0.4691157610190111   F  F  F
  0.3547807339046258  0.3740415506230050  0.0891357371451065   F   F   F
  0.8553095737571608  0.3720968544373877  0.3758279515565210   F  F  F
  0.4395871015787791  0.5407632672609022  0.4603173892514416   F  F  F
  0.0936601059472095  0.8589255708073323  0.3780122650005879   F  F  F
  0.9223033180857507  0.7737788490983680  0.4652204924653383   F  F  F
  0.9231732930582552  0.0185439392334814  0.1883007011138318   F   F   F
  0.0305456968780261  0.7041186467042413  0.2862777615535975   F  F  F
  0.6711573820224075  0.5273471633170033  0.1892460239102434   F   F   F
  0.1821748271141672  0.7741941723825221  0.1929017849362182   F   F   F
  0.7649802810877678  0.20283118379081738  0.528416742282241   T   T   T
