Pt Pd Ni Co Fe O 
   1.00000000000000     
     8.9402397008366439   -5.1650231488028941   -0.0098511345226638
     0.0059252925023829   10.3467511160493100   -0.0068757842528773
     0.0076024731317899   -0.0243407989635158   22.9131843172714085
Pt Pd Ni Co Fe O 
13 16 15 18 18 1 
Selective dynamics
F
  0.8310315762898242  0.0997819711591816  0.0953374918714402   F   F   F
  0.9258511061451742  0.2841449964871430  0.1955098835110931   F   F   F
  0.9438649782375728  0.7849903091875765  0.4685612791722757   F  F  F
  0.9246401065117098  0.0240854783438280  0.1943885370345768   F   F   F
  0.1881997162484694  0.0302158363079172  0.1890499008553448   F   F   F
  0.0971704819808750  0.1103092978265963  0.0954947111991729   F   F   F
  0.4336624256377885  0.7927990460324265  0.4661024482995797   F  F  F
  0.6796633568320825  0.5259277905133928  0.4689188451376259   F  F  F
  0.8477674339033641  0.6207246130747777  0.0896999372024965   F   F   F
  0.5177498515634413  0.1928077086638930  0.2806529098357621   F  F  F
  0.8487164644070688  0.3659013727486595  0.0951751981296951   F   F   F
  0.6868343828805195  0.5383528396257447  0.1876038787147962   F   F   F
  0.3547795295374740  0.3712689665450455  0.0954581094230846   F   F   F
  0.4267951489561186  0.5338133189516638  0.4706587811273250   F  F  F
  0.4338495763665975  0.5420983057667215  0.1883173024480200   F   F   F
  0.1796236389143326  0.2787768268782549  0.4694919528314435   F  F  F
  0.1828888932254884  0.5403566669075417  0.1890096532236925   F   F   F
  0.2584780137764210  0.1977797862021639  0.2861240396030701   F  F  F
  0.8511642221248406  0.6178175416316747  0.3723378402231367   F  F  F
  0.5273824744245647  0.7124557337266961  0.2833956624813151   F  F  F
  0.2716539780017120  0.7043730628649424  0.2836682980844705   F  F  F
  0.0228540136229617  0.7074957919941062  0.2796123046386044   F  F  F
  0.9224959974704715  0.0300278189225129  0.4696166987546976   F  F  F
  0.6054002751356027  0.1127995640563322  0.3760128396558386   F  F  F
  0.6800952623803418  0.2712071172759274  0.4751213733881740   F  F  F
  0.7772082450230098  0.4415796199991859  0.2802159618850261   F  F  F
  0.5203635432237129  0.4532302052960019  0.2862482501598074   F  F  F
  0.1041089224336673  0.3718491888426101  0.0943820472879509   F   F   F
  0.5952078207773894  0.3540384620204051  0.0923924590254117   F   F   F
  0.2715632975119692  0.9500557771991621  0.2830347368303200   F  F  F
  0.1094196743549176  0.8601260762328877  0.0915716518314582   F   F   F
  0.9348933357457766  0.2880286313069350  0.4613841708880387   F  F  F
  0.9337788190734244  0.7840811600499435  0.1876695982262149   F   F   F
  0.5980495208401593  0.6213892110783873  0.3774296085170116   F  F  F
  0.4382515535220648  0.7969120506726597  0.1869305193051005   F   F   F
  0.8599639709608790  0.3649524516330098  0.3736797758702028   F  F  F
  0.3578406073162625  0.6249292139427070  0.0913429489529705   F   F   F
  0.6019745716424083  0.6297946089289894  0.0923379060028537   F   F   F
  0.8388979615554533  0.8607521365663402  0.0940142094713963   F   F   F
  0.4176782612558007  0.0291894182887286  0.4640089352556521   F  F  F
  0.3463123585800424  0.8655626369137007  0.3732221480786143   F  F  F
  0.3461477058488068  0.3653348806929119  0.3775128273792533   F  F  F
  0.9374868766976903  0.5414217357869120  0.1856686361811697   F   F   F
  0.0110919022457255  0.9483798904457489  0.2862650807996409   F  F  F
  0.5906685670328340  0.3591893608247325  0.3777310146925331   F  F  F
  0.5853894334523275  0.1010081222164558  0.0948387939211841   F   F   F
  0.7683479292019987  0.1852861867652212  0.2853381678288629   F  F  F
  0.8490787080925424  0.8689512751603583  0.3730325455629102   F  F  F
  0.1053159591726711  0.6195344522524522  0.0934073639887245   F   F   F
  0.1060604959560650  0.6089271707668510  0.3773460269658909   F  F  F
  0.4309877913377118  0.2742231739311374  0.4610239523064220   F  F  F
  0.0257923340363760  0.4410911556977354  0.2879586322002174   F  F  F
  0.1111009572414576  0.8810269290516715  0.3745863924803073   F  F  F
  0.0096116550812222  0.1961369899569418  0.2857962470820858   F  F  F
  0.8586777397855238  0.1159194265050139  0.3729111359494985   F  F  F
  0.5256699906727553  0.9550362264569686  0.2791674452504210   F  F  F
  0.6691216818983889  0.2665804199934030  0.1853452332871015   F   F   F
  0.1850102626548022  0.7838189291191807  0.4592444024372929   F  F  F
  0.6821182503538310  0.7890167240953119  0.1858151122010696   F   F   F
  0.0941319572799780  0.1084444276527188  0.3755576878891172   F  F  F
  0.4350541899380502  0.2812089158297724  0.1876655844232786   F   F   F
  0.7752513134947557  0.9571421411231003  0.2870775204984346   F  F  F
  0.3473605214547700  0.6085453215243269  0.3753928824157822   F  F  F
  0.6838171345013209  0.7772230795124272  0.4647363949338356   F  F  F
  0.6118803476752572  0.8694079026667400  0.3749330126500216   F  F  F
  0.3520550856370761  0.1082416401526203  0.0913629461013414   F   F   F
  0.2638930311097180  0.4486536135146135  0.2841001087311634   F  F  F
  0.5917638627857329  0.8576873048947817  0.0956322211163254   F   F   F
  0.1862925688590964  0.0283855171705779  0.4627815746118200   F  F  F
  0.1725897100730407  0.5365684607068959  0.4643362004328300   F  F  F
  0.6824266040712168  0.0289467626245990  0.4680050064352506   F  F  F
  0.0997032234704956  0.3580145205017334  0.3731909433319462   F  F  F
  0.4395025559702788  0.0376865642432804  0.1859998600309396   F   F   F
  0.1848256940336626  0.2834599654257630  0.1914504163174371   F   F   F
  0.1864911067551560  0.7833122861320447  0.1851937825348386   F   F   F
  0.3519845030914859  0.1167757619022647  0.3757364871655841   F  F  F
  0.6742445868158455  0.0266946261020919  0.1924819593495997   F   F   F
  0.7730199934876757  0.7136967523575215  0.2803663021397921   F  F  F
  0.3590130829206331  0.8618260670253051  0.0963910520783173   F   F   F
  0.9340632648409052  0.5274010117751606  0.4641002466530814   F  F  F
  1.0961448354006655  0.11237989772575589  0.524032593819355   T   T   T
