Pt Pd Ni Co Fe O 
   1.00000000000000     
     8.8996987012772220   -5.2211388842501600    0.0348443425744497
    -0.0054571542633916   10.4392049630635277    0.0175190658815651
     0.0905460515111628    0.0049265404080968   22.9370260653751217
Pt Pd Ni Co Fe O 
14 16 17 15 18 1 
Selective dynamics
F
  0.5147000093306051  0.6938691290228847  0.2860848477006159   F  F  F
  0.4257197990611985  0.7900355886399879  0.1894580629078320   F   F   F
  0.3582179062680024  0.1125619545851752  0.3752153386301552   F  F  F
  0.6111957529572507  0.3766003235046398  0.0924526395343506   F   F   F
  0.5978802937851313  0.8600687095012347  0.0946600624493144   F   F   F
  0.0249956491648848  0.7020303542527361  0.2810725807326804   F  F  F
  0.1016997522185079  0.6216245966579663  0.0973568007007515   F   F   F
  0.0156523676706040  0.9466460452831196  0.2808726923676200   F  F  F
  0.7552602811476498  0.1928725787710517  0.2863571462767953   F  F  F
  0.6921155053644981  0.7884497070385237  0.1894844545101435   F   F   F
  0.1105104132894867  0.3752274265120367  0.3777196277160345   F  F  F
  0.9383592770219263  0.0351869318005979  0.4746751290793133   F  F  F
  0.6046364473789904  0.8735526418347684  0.3773384951209232   F  F  F
  0.4282472913142925  0.5249434437641511  0.1896730897670196   F   F   F
  0.6785358996272848  0.2850757213794211  0.1910247913701895   F   F   F
  0.4395318525139465  0.2841922023832590  0.4713792902420362   F  F  F
  0.3438910885597437  0.1092843250232676  0.0950425081183184   F   F   F
  0.9334832139385085  0.2803409421194800  0.1855477437600470   F   F   F
  0.3525686551627132  0.3682144803685077  0.0938163604503899   F   F   F
  0.0990129102789155  0.3619901409121269  0.0929246211809840   F   F   F
  0.2792131207582819  0.2087171175727951  0.2795582984127599   F  F  F
  0.1831295696776226  0.7809449866466592  0.4699725578145322   F  F  F
  0.9397602738905988  0.7814578292634167  0.1844882545440996   F   F   F
  0.4372595547715558  0.5392203266203818  0.4701837844041906   F  F  F
  0.0160760441265429  0.1982814229213162  0.2807410811698643   F  F  F
  0.6787981817244665  0.0364731762209200  0.4756994079454652   F  F  F
  0.1010494657281651  0.1142112296379955  0.3771939805759686   F  F  F
  0.0205910257086583  0.4539082780743762  0.2812701435098640   F  F  F
  0.5990668048662258  0.1128884942682120  0.0978076114894293   F   F   F
  0.8490366655413644  0.6135746806448943  0.3750552685964696   F  F  F
  0.6834305799273963  0.5311285410937145  0.1896051093605280   F   F   F
  0.1862029883557973  0.0296017219777012  0.4674596439739391   F  F  F
  0.2696822950644665  0.4525524071749713  0.2825958801455096   F  F  F
  0.2717053197948250  0.7036750881661404  0.2831597102885671   F  F  F
  0.3633853656386903  0.3795076553709257  0.3727740262625265   F  F  F
  0.8561654507377767  0.8668990175622326  0.0949238986323522   F   F   F
  0.6035096539003604  0.6181808902926846  0.0945743061654838   F   F   F
  0.8505132207103874  0.3654631780126053  0.3773645365344504   F  F  F
  0.9336546190393875  0.5334791418431877  0.1871444418295880   F   F   F
  0.1861185816013986  0.0363820449054657  0.1865448966554624   F   F   F
  0.5143930747825238  0.1988005477311893  0.2823615453931359   F  F  F
  0.8523373857334846  0.3722413740766086  0.0932047758380463   F   F   F
  0.8523324992827312  0.1124203896758758  0.0947855253170999   F   F   F
  0.7636872564494847  0.6963140862957021  0.2824107367788349   F  F  F
  0.1070487777599717  0.6199163171845261  0.3770814461943763   F  F  F
  0.7654534815510413  0.9480752837528683  0.2823047882834409   F  F  F
  0.9384823337336314  0.0368316222067477  0.1853785051615731   F   F   F
  0.1882364700886114  0.7916600060629975  0.1877209950989922   F   F   F
  0.5329420081197140  0.4501765915273411  0.2838794301747705   F  F  F
  0.4337604964961415  0.2831473296696174  0.1878959603828463   F   F   F
  0.1836457860013496  0.5347073871843193  0.1876569203845833   F   F   F
  0.3464287199188855  0.6268373262341289  0.3776745443656793   F  F  F
  0.6967947907585516  0.2976654566699509  0.4636324523932235   F  F  F
  0.3399496062418450  0.8617760142997071  0.0934257991081324   F   F   F
  0.1844222646178011  0.2757721291403641  0.1864755415639152   F   F   F
  0.8500558733876563  0.1233833310830128  0.3796971994125663   F  F  F
  0.8462711600813355  0.8616110209273397  0.3761210264519114   F  F  F
  0.8524548038760287  0.6199947721959589  0.0949114867708758   F   F   F
  0.1014331294273304  0.8650171452490051  0.3748828422273460   F  F  F
  0.6104081667182291  0.1279716021381694  0.3821315307053108   F  F  F
  0.2781381568410984  0.9513411837063662  0.2806870885306229   F  F  F
  0.6056189189212967  0.3650327641227040  0.3724723804865006   F  F  F
  0.1039147158392026  0.8663092335495648  0.0951224488237017   F   F   F
  0.3501883062006357  0.6190521640346702  0.0939418483552572   F   F   F
  0.1761993407404092  0.5273135303519417  0.4687747840920894   F  F  F
  0.3431199070866924  0.8621822464923902  0.3729544681998533   F  F  F
  0.9280439156896659  0.5280043902838663  0.4658916074464217   F  F  F
  0.4363524299144868  0.0391388967711365  0.4675486207885808   F  F  F
  0.6955389752498834  0.7816566587313000  0.4666608273142095   F  F  F
  0.9386703937096630  0.7909222795655884  0.4638375796564415   F  F  F
  0.5103852020249943  0.9505833903964882  0.2834990103351522   F  F  F
  0.1866113388266519  0.2826764665723402  0.4690618830029488   F  F  F
  0.0907948193486448  0.1083731259747438  0.0975071464245616   F   F   F
  0.6896940728553396  0.5312004877778855  0.4675391518754198   F  F  F
  0.6885186949662838  0.0331558920804866  0.1915919548346352   F   F   F
  0.6005549965017154  0.6092808600216232  0.3745722242017113   F  F  F
  0.7601184194621157  0.4506340054488098  0.2811321958595688   F  F  F
  0.4200276505905549  0.0346593921086651  0.1917157957372382   F   F   F
  0.9329515666009388  0.2848408772554925  0.4671915909635631   F  F  F
  0.4290178477121707  0.7780633487214947  0.4638600493990421   F  F  F
  0.2667788225671545  0.44978527486215536  0.5260163879635585   T   T   T
