Pt Pd Ni Co Fe O 
   1.00000000000000     
     8.9836433797606503   -5.1946067336643678   -0.0193109433859568
    -0.0282322062653919   10.3466559741649142   -0.0057122649007678
    -0.0046752989415466   -0.0227398229419912   22.8996178898490967
Pt Pd Ni Co Fe O 
17 14 17 17 15 1 
Selective dynamics
F
  0.9344158119472823  0.7820510192805514  0.1904936108027968   F   F   F
  0.8472350494873223  0.6241358988365547  0.3714817615028590   F  F  F
  0.1081791733780303  0.8794742531300138  0.3726494166605201   F  F  F
  0.5013907456443186  0.1855664926770832  0.2786695069741398   F  F  F
  0.9271083750582348  0.2651445245610538  0.4738278394755402   F  F  F
  0.7694964774594334  0.1946997409903572  0.2834914371278282   F  F  F
  0.5236313967303006  0.4541534787303354  0.2785969054969539   F  F  F
  0.9354377937868321  0.0372873753736513  0.1909225467733080   F   F   F
  0.9336965749544461  0.5330664996997996  0.1868929776753916   F   F   F
  0.6775511121489196  0.2762975191021712  0.4717663014841553   F  F  F
  0.5997551766469912  0.3604610216906837  0.3761896092641817   F  F  F
  0.1929782951140879  0.5415601105826582  0.1865552821798104   F   F   F
  0.8462326495670709  0.8685098965188871  0.0912656914656864   F   F   F
  0.3487997209033509  0.6149535352842790  0.0900706458522080   F   F   F
  0.1053022343235146  0.6183430368062509  0.3724509496527248   F  F  F
  0.2603122228804532  0.4475841225397681  0.2820788444976269   F  F  F
  0.0904922794961898  0.3554985320218579  0.3765482693786535   F  F  F
  0.3446457505853915  0.3574659220356264  0.3779164061650583   F  F  F
  0.4402276579740359  0.5308925584203344  0.4753106425786253   F  F  F
  0.6765942465555668  0.2752740131756681  0.1838940485070495   F   F   F
  0.5941963808406783  0.3583558907383448  0.0922418506228126   F   F   F
  0.9371030756438472  0.2830914396633517  0.1848199979757936   F   F   F
  0.1783712782652086  0.5336487891558395  0.4757643871596323   F  F  F
  0.4379495142974724  0.7924944590298943  0.4695956646276152   F  F  F
  0.5980536064744157  0.8734027484124667  0.0910622412881068   F   F   F
  0.1976399823829880  0.0388129231851408  0.1900992062019071   F   F   F
  0.1087390809374398  0.8649757831010163  0.0916466622969381   F   F   F
  0.5170643278940559  0.7092876009938700  0.2841343501109151   F  F  F
  0.1067317560043577  0.1283399627425439  0.0930110561494217   F   F   F
  0.6736931708040785  0.7788523379405632  0.1886175598900408   F   F   F
  0.8508434970900538  0.6093546831808467  0.0890087336199770   F   F   F
  0.4237145924564505  0.2677082532897718  0.4697189387444201   F  F  F
  0.5960299734387082  0.1046858901705815  0.3730864108975270   F  F  F
  0.8480156135378332  0.3621071236947125  0.3757722509424045   F  F  F
  0.4341807372472530  0.5270234073058191  0.1835188547972351   F   F   F
  0.6967252452024714  0.7871738017824621  0.4634262134025812   F  F  F
  0.6857310672464726  0.0262187056106909  0.4645021949852616   F  F  F
  0.4313469925718323  0.7928299310145022  0.1878411338829622   F   F   F
  0.3493067102346927  0.3676704906882051  0.0958347908755428   F   F   F
  0.0973608190712909  0.3702516859150720  0.0905090139890490   F   F   F
  0.8465531340409100  0.1224293656973714  0.0905452797948030   F   F   F
  0.0152357232614129  0.9500425115879131  0.2837727762064031   F  F  F
  0.1791997427899759  0.7914131017816919  0.4661276791152776   F  F  F
  0.6025981657343367  0.8700860250632835  0.3751414886899206   F  F  F
  0.4240617883280736  0.0318318879776315  0.4624741270523446   F  F  F
  0.5125100162786124  0.9481042994447347  0.2799636360338805   F  F  F
  0.7736898926050646  0.4527575696773715  0.2805598744285696   F  F  F
  0.1916737302644052  0.7866708180141089  0.1873806224269430   F   F   F
  0.7727321193739107  0.7049566656214226  0.2797415983782087   F  F  F
  0.2697773539832519  0.7113185547155909  0.2784955665666167   F  F  F
  0.6938267793204740  0.5414788378325078  0.4659689800976987   F  F  F
  0.4360436778428110  0.0256927593780389  0.1822201597465707   F   F   F
  0.3581471434666230  0.6249189329966071  0.3776388525659523   F  F  F
  0.3533363731200296  0.8702448124462521  0.0950592909655228   F   F   F
  0.9333605369233100  0.7825397169990410  0.4635443588316600   F  F  F
  0.9284169095338477  0.5399030420416164  0.4653519913445961   F  F  F
  0.2658229681291832  0.9354982409352235  0.2793148916342625   F  F  F
  0.0213619639593717  0.1891871911653302  0.2845318765434147   F  F  F
  0.0148254609741316  0.4546450983579164  0.2802613946504326   F  F  F
  0.6771130696452090  0.5294776847051708  0.1854947278824213   F   F   F
  0.1009292227367453  0.6122897604477515  0.0880894827519398   F   F   F
  0.3587303687720364  0.8668733195150956  0.3716446945970918   F  F  F
  0.4314084576800212  0.2897839353044134  0.1848029837365459   F   F   F
  0.7768946299977166  0.9491172938940071  0.2856554160896955   F  F  F
  0.1947307753131895  0.2891075286638056  0.1865244649826039   F   F   F
  0.9288300506983125  0.0204081001636602  0.4673922964293710   F  F  F
  0.0895174490271253  0.1091531530578801  0.3745877979336046   F  F  F
  0.1853740861174568  0.0316031053473519  0.4689982034209856   F  F  F
  0.2547082148008460  0.1934655042177878  0.2808176344636388   F  F  F
  0.5889620230892447  0.1080402361859711  0.0898905625825748   F   F   F
  0.8420621748201590  0.8670214049265599  0.3714744522736891   F  F  F
  0.5963061899180744  0.6109988231317587  0.0947396787546211   F   F   F
  0.1784922030905808  0.2662219577305069  0.4711491855027365   F  F  F
  0.5999161240183932  0.6250378121561544  0.3778762740144072   F  F  F
  0.8380722004440961  0.1092204891889191  0.3763585161444830   F  F  F
  0.3548474351915630  0.1100491167167535  0.3755408003115774   F  F  F
  0.8537129223269488  0.3613994590279859  0.0893685336963301   F   F   F
  0.6760614896768047  0.0282766324869357  0.1877695457206983   F   F   F
  0.3523285042139292  0.1182533832091934  0.0943523073122847   F   F   F
  0.0235592867906687  0.7007177245463538  0.2793210446421873   F  F  F
  0.8529673314099394  0.8633523620107353  0.5215570861805225   T   T   T
