Pt Pd Ni Co Fe O 
   1.00000000000000     
     9.0042196513834405   -5.1816049704556733   -0.0032803803665809
    -0.0273906419229299   10.3222154506969215   -0.0072348151389254
     0.0169439754674682   -0.0247731476155639   22.9374823001325652
Pt Pd Ni Co Fe O 
16 18 16 16 14 1 
Selective dynamics
F
  0.8402728790737726  0.1245931495733856  0.0927448145515086   F   F   F
  0.4410705648452857  0.0238847630173770  0.4734094497332448   F  F  F
  0.4322882666253313  0.5298177473734934  0.4699744479258416   F  F  F
  0.8528069339634854  0.6279346856923951  0.0939185955512514   F   F   F
  0.9306171146303354  0.7697598659732816  0.4761659557619875   F  F  F
  0.3549727369870706  0.1195276068578298  0.3789013969875660   F  F  F
  0.9335242013059997  0.0365680019228449  0.1850427571851085   F   F   F
  0.7085138125086818  0.2943025158172740  0.4701499214307395   F  F  F
  0.1817504150748164  0.0236604156701503  0.1833224113869321   F   F   F
  0.8456152899129065  0.8637009100450790  0.3742546929257156   F  F  F
  0.6838019060650278  0.7869681836192816  0.4772322397571762   F  F  F
  0.0139625930361562  0.2119188015043894  0.2819441370538430   F  F  F
  0.5957805123891091  0.8727143262682971  0.3775912635699847   F  F  F
  0.6793966256450119  0.7735913272887203  0.1858573741705811   F   F   F
  0.6883931455342704  0.2719343629234174  0.1831938477341950   F   F   F
  0.5210380494344328  0.1979858107099955  0.2821771995091013   F  F  F
  0.7618896196665461  0.9479636331834097  0.2809213871191825   F  F  F
  0.9477442398086922  0.5402211297934727  0.1862324573529648   F   F   F
  0.8431640937415168  0.6041469333924908  0.3765426523621581   F  F  F
  0.0993044882829446  0.8596548359226183  0.3757338989203279   F  F  F
  0.0995170276421129  0.1255305070170201  0.3778551436252333   F  F  F
  0.3407212781142853  0.6139889825484042  0.3721626630770540   F  F  F
  0.4250276178849006  0.5304755018300895  0.1880513072591725   F   F   F
  0.3464721777559276  0.6159560225908720  0.0922378120141758   F   F   F
  0.7778693449471364  0.4534090637148346  0.2806850363722348   F  F  F
  0.2575019377213098  0.9349577098738003  0.2799932207289377   F  F  F
  0.5096096855122576  0.9393040657064796  0.2791093392905843   F  F  F
  0.2630343539065845  0.2014050837645782  0.2800218315692051   F  F  F
  0.1792894831711259  0.0316254804076392  0.4797092218131666   F  F  F
  0.4367604103313099  0.2839143964852795  0.1825014484764509   F   F   F
  0.4403694323886981  0.2845907532369893  0.4789680498686119   F  F  F
  0.1749406847906898  0.5273659656026927  0.4753127644963873   F  F  F
  0.1080675826638711  0.8638247714447900  0.0937105297198073   F   F   F
  0.5220670910088158  0.4593629305895825  0.2837793141753522   F  F  F
  0.9286636123276907  0.0368813700912342  0.4701903267492220   F  F  F
  0.1806517902385707  0.2860030105165379  0.1841624886657058   F   F   F
  0.1886042272089633  0.7799356442513106  0.4671924740919433   F  F  F
  0.2616192858770723  0.6897295522979088  0.2765957630650370   F  F  F
  0.0981308469278700  0.6107634577170282  0.3721131719016729   F  F  F
  0.1008735242174410  0.6161020754902680  0.0933401383182755   F   F   F
  0.4319519434500997  0.7804914672112717  0.4700778063922060   F  F  F
  0.3496057167778659  0.8672309548940902  0.0950781659198654   F   F   F
  0.3499838637227839  0.1087233558425709  0.0921548411400650   F   F   F
  0.5969656407410933  0.3679305584900330  0.3804098950702368   F  F  F
  0.6849007211212310  0.5305308275752694  0.1858857928536608   F   F   F
  0.3501537299735366  0.3704458572909965  0.3745302559006422   F  F  F
  0.1784596539083821  0.2821365163145875  0.4687882088372470   F  F  F
  0.6017469301162777  0.6160887104702510  0.0919312476458529   F   F   F
  0.6092252784437785  0.1283631916208461  0.3762281903655955   F  F  F
  0.1821665192722790  0.5264986655482105  0.1904598254136758   F   F   F
  0.7758967745348393  0.7041848401481556  0.2781453813405097   F  F  F
  0.9343839221398795  0.7812064706853548  0.1906210719372154   F   F   F
  0.8517483072710184  0.1300771493070291  0.3789229408671649   F  F  F
  0.6004992763500709  0.8620604971643715  0.0938102106911387   F   F   F
  0.0320313001886371  0.4642066697472148  0.2824325713320986   F  F  F
  0.0059555683143238  0.9361766785095147  0.2793527256145156   F  F  F
  0.1066578175409134  0.1205507199515381  0.0953663545220778   F   F   F
  0.4277298786452732  0.7869619390733078  0.1853026381565215   F   F   F
  0.8414370284275563  0.8701695394315081  0.0931053614889947   F   F   F
  0.5105870430595365  0.6951358810567903  0.2816492042369673   F  F  F
  0.2629221655513048  0.4547806897862156  0.2811101059625430   F  F  F
  0.3464215073329172  0.8637323651315801  0.3793416655475769   F  F  F
  0.4347458082851148  0.0262366453667582  0.1826672964078000   F   F   F
  0.5978094936380529  0.3650470709656517  0.0906098143805139   F   F   F
  0.1007581609412540  0.3657006549713415  0.0968368571544360   F   F   F
  0.8481946857609870  0.3749725745415375  0.0911598021649738   F   F   F
  0.6895283313627436  0.0338092515599972  0.4701661999731106   F  F  F
  0.5950725371447783  0.6138836961748499  0.3763839297947700   F  F  F
  0.0175113586486742  0.6970907026793886  0.2813962948387914   F  F  F
  0.7678256377296406  0.2017898427923611  0.2840882254937454   F  F  F
  0.9488969819473480  0.5396158639978046  0.4655205550384331   F  F  F
  0.1948152295076042  0.7794659362444634  0.1831722675338767   F   F   F
  0.9451161162976049  0.2926703990297455  0.1873768596082996   F   F   F
  0.9408657272623582  0.2715434459536194  0.4679246628068269   F  F  F
  0.0994972072816743  0.3720537329424838  0.3757005821293992   F  F  F
  0.3507765832010392  0.3623679298926916  0.0931959672364187   F   F   F
  0.6806922645922622  0.5294489222518372  0.4722881071775547   F  F  F
  0.8514985383512449  0.3580227232906120  0.3732022384227439   F  F  F
  0.5837253416607524  0.1097328257112480  0.0912258050519839   F   F   F
  0.6697371694075258  0.0173054510516693  0.1837084173289085   F   F   F
  0.5989438483545237  0.6153989085759546  0.5298406670227157   T   T   T
