Pt Pd Ni Co Fe O 
   1.00000000000000     
     9.0535546095388657   -5.2013313521841082   -0.0081802735457709
    -0.0512925186725770   10.3195776779144257   -0.0217183998587039
    -0.0010438201918588   -0.0429942890548056   22.9053375955636902
Pt Pd Ni Co Fe O 
19 16 15 16 14 1 
Selective dynamics
F
  0.4302395115351345  0.2859418545555741  0.1886676379902781   F   F   F
  0.4473013165796604  0.5316128436698659  0.4745824692517213   F  F  F
  0.6890629681401848  0.7756417117378547  0.1864997577997940   F   F   F
  0.6063297463016868  0.8717655613424699  0.3759649564967045   F  F  F
  0.5138968919208727  0.6945248894166752  0.2814778596418305   F  F  F
  0.6764520320227874  0.2684223026353862  0.1870381245311918   F   F   F
  0.4322411714006833  0.7849945583114675  0.1877685490195589   F   F   F
  0.1765582499274814  0.7818397124105942  0.1889068509386291   F   F   F
  0.2633150730969172  0.4426836944800273  0.2782047645653666   F  F  F
  0.6853319187681673  0.0414296933735971  0.4733557097181189   F  F  F
  0.8635938409635194  0.8750505389164660  0.3706856765964301   F  F  F
  0.9442318978881445  0.0291098486514656  0.1832839970576003   F   F   F
  0.0924229764731445  0.6134682344298369  0.3741289985194753   F  F  F
  0.3392805166809367  0.6047128939839155  0.0906658458827536   F   F   F
  0.6021887649723024  0.6062772732084675  0.3746805600936960   F  F  F
  0.9315047057053137  0.7833048203323459  0.4711179206955532   F  F  F
  0.0956355545605073  0.3579743567196437  0.3774518883859709   F  F  F
  0.3502032392001298  0.8653319530327439  0.3779189220377676   F  F  F
  0.3555233525474406  0.1297330561550083  0.3775818961451677   F  F  F
  0.1868667998014522  0.7859347814955859  0.4765635846797955   F  F  F
  0.0937124000308458  0.8702643391713423  0.0918076484242931   F   F   F
  0.8475646413571525  0.6127601841183932  0.0918208285748250   F   F   F
  0.6028155536865398  0.8702274053236252  0.0904088483374537   F   F   F
  0.1814753317192909  0.5274006286318879  0.4768204689165988   F  F  F
  0.3484424840037192  0.8682757405496275  0.0906862826924737   F   F   F
  0.9396306772967691  0.2850271426792261  0.1867890992813983   F   F   F
  0.5245667344637395  0.9649089843208712  0.2809414201107657   F  F  F
  0.1863927812272770  0.2697963859338509  0.4741110568046745   F  F  F
  0.0084629415410848  0.1858051304992390  0.2833416501171681   F  F  F
  0.9277910213890550  0.5304230300831492  0.1884687027910488   F   F   F
  0.7666337457276902  0.4498843217283177  0.2851102428169688   F  F  F
  0.2636477019395752  0.9551853496346527  0.2823321939168046   F  F  F
  0.8551129631103933  0.1240120257794572  0.0892261201061046   F   F   F
  0.5940073095359253  0.6036741605672944  0.0904169926149194   F   F   F
  0.3532659533753346  0.1277079741748750  0.0913119054831384   F   F   F
  0.6795637615970733  0.5296066656745424  0.1902856580786150   F   F   F
  0.4407705973860427  0.7816483199847057  0.4704808783752468   F  F  F
  0.6071393640830964  0.1280811561946392  0.3761923453410262   F  F  F
  0.0174460863087189  0.4519132339046232  0.2812792136949148   F  F  F
  0.7696459782510922  0.2011872272910965  0.2856860456091677   F  F  F
  0.1858903151048992  0.2824003284310592  0.1807245191781206   F   F   F
  0.0156579077940517  0.9429578295051758  0.2798302633900080   F  F  F
  0.8515453834602194  0.6147146627429050  0.3766367839871728   F  F  F
  0.1853622285807676  0.0300413491097901  0.4673080546860584   F  F  F
  0.6046100668730983  0.3664619573894806  0.3773664086949586   F  F  F
  0.4266104140794269  0.5270344445519086  0.1853316202780846   F   F   F
  0.6907430249807419  0.7885013638242756  0.4696395123607182   F  F  F
  0.9342216991194447  0.0355232378647793  0.4655706119326898   F  F  F
  0.0140724796028925  0.7044842828652007  0.2844872622702643   F  F  F
  0.6043272938966382  0.1268158383024769  0.0868000079736007   F   F   F
  0.4263032136978566  0.0322807917379961  0.1853134687054663   F   F   F
  0.7692081575164181  0.7000276373088085  0.2805460767046792   F  F  F
  0.9147249186512989  0.5171967668307057  0.4657013086830394   F  F  F
  0.6767045946636747  0.2853816357317138  0.4657132393962397   F  F  F
  0.7643367776560508  0.9465122751631403  0.2792371090990982   F  F  F
  0.5160878111572117  0.4440543491851033  0.2804356763265470   F  F  F
  0.8474637646618777  0.1226824282741900  0.3775245895333522   F  F  F
  0.1011664223810028  0.8687097679036665  0.3766475058028168   F  F  F
  0.8521748606726050  0.8678854699474527  0.0890127974084010   F   F   F
  0.8440282488234203  0.3639833303804778  0.0915167158025270   F   F   F
  0.3375381602498990  0.3597992137485448  0.0894076868589906   F   F   F
  0.1004982602556410  0.1241385951220977  0.0878181889073488   F   F   F
  0.1080007213579385  0.1163378558215646  0.3755938615997602   F  F  F
  0.1876454444459981  0.0387290105163274  0.1896318551879759   F   F   F
  0.0921960805778497  0.6040928334519151  0.0945061193247767   F   F   F
  0.6067726184002211  0.3648387434185949  0.0928482436432176   F   F   F
  0.3487404454633498  0.6123088076265953  0.3791976107029011   F  F  F
  0.9328452808278556  0.7802828636156036  0.1908994541081981   F   F   F
  0.1827143190587179  0.5286926408815233  0.1847478264373166   F   F   F
  0.5208619986326365  0.2079146359398859  0.2845359611627629   F  F  F
  0.0988897453818183  0.3615022198421229  0.0902749174378386   F   F   F
  0.2616146292328120  0.1978016549964368  0.2807733997218468   F  F  F
  0.3513688852358012  0.3694494131877504  0.3756589071815157   F  F  F
  0.2553543999299357  0.6938805152999261  0.2794201618756463   F  F  F
  0.9268605142710521  0.2817897248083808  0.4684752732717525   F  F  F
  0.6957457330552484  0.5321516808971865  0.4680119180907301   F  F  F
  0.4470926162418022  0.2765384725810269  0.4729178553085384   F  F  F
  0.8422409207719452  0.3614065779705388  0.3776945307564614   F  F  F
  0.4372866704884766  0.0339272727511677  0.4713194084719629   F  F  F
  0.6861859254181866  0.0304638841322387  0.1874234834954009   F   F   F
  1.0170283281913715  0.9495861443074961  0.5247540417588529   T   T   T
