Pt Pd Ni Co Fe O 
   1.00000000000000     
     9.1015864070951036   -5.2032637566629534    0.0135335626032607
    -0.1048194161324762   10.2330445343961571   -0.0356398617946417
     0.0215696504490981   -0.0608953522147757   22.9612949984530239
Pt Pd Ni Co Fe O 
17 17 16 15 15 1 
Selective dynamics
F
  0.1891021453574311  0.2921334115940368  0.1875629394677318   F   F   F
  0.1941975667354212  0.5354025336741739  0.4747200672181766   F  F  F
  0.0083419305886975  0.1968452036915479  0.2811861082769791   F  F  F
  0.0959874973225681  0.1105087053445217  0.0935870139532895   F   F   F
  0.9351773437783706  0.2925613382349610  0.1857422327759082   F   F   F
  0.6832893975463894  0.7908701978688746  0.4675086497698717   F  F  F
  0.3436563349824450  0.8552079539046763  0.3810941995280884   F  F  F
  0.6009300106735009  0.1128532898791521  0.3793040608644894   F  F  F
  0.4306831022703435  0.7739828880483586  0.1855082571639315   F   F   F
  0.5214455358620083  0.2068612646469166  0.2813332840362803   F  F  F
  0.3523587530669358  0.1245622199260494  0.3834039559426131   F  F  F
  0.6115707773445536  0.3712677333906242  0.0924746566648764   F   F   F
  0.3489541277978390  0.3742373890892736  0.0926729530652750   F   F   F
  0.8520817631861479  0.3748662711862926  0.3779504085014473   F  F  F
  0.2718734451969192  0.2097312365504902  0.2833600781695777   F  F  F
  0.2603211035835409  0.9426857091701618  0.2801979736169728   F  F  F
  0.5240558168023044  0.9429893979180641  0.2814911277354343   F  F  F
  0.7746189796137465  0.4634785661429614  0.2822285741677623   F  F  F
  0.8430469538210517  0.1125719710797028  0.0935780884911850   F   F   F
  0.6815654377406020  0.2765697735278820  0.1852260319904460   F   F   F
  0.9301342875046823  0.2772883205260390  0.4796099329066255   F  F  F
  0.6934929483778154  0.5357143913683082  0.4719638751742013   F  F  F
  0.0026194853948758  0.9327043213163024  0.2817146431591834   F  F  F
  0.4313512935081392  0.2815199215734459  0.4833958030120629   F  F  F
  0.0963766842713361  0.1097370737871643  0.3798025928652854   F  F  F
  0.1090940140311133  0.3769765501860716  0.3757757934295388   F  F  F
  0.1792580023942642  0.7888207706532130  0.4795905050270550   F  F  F
  0.6844070860959306  0.5430310023645433  0.1893649104128841   F   F   F
  0.3487298750883738  0.1050186919308658  0.0948168149331323   F   F   F
  0.5983728421502050  0.6295810692426826  0.0942750624493698   F   F   F
  0.8510418197247844  0.8598760417799198  0.0935540830886765   F   F   F
  0.8433136405291927  0.1016170985388545  0.3787309283284414   F  F  F
  0.2587326195737570  0.6840122080126259  0.2832162646522007   F  F  F
  0.8609277775970270  0.3779633542727510  0.0915776176472534   F   F   F
  0.6055091937738427  0.3813121268073227  0.3761852772404249   F  F  F
  0.6810637811490706  0.2789525981871719  0.4700475255141755   F  F  F
  0.1838888329200591  0.2804895306141418  0.4711725022380421   F  F  F
  0.6736686521141599  0.0299492977515478  0.4720972578145127   F  F  F
  0.7566573926008092  0.6993484904003748  0.2842498464404447   F  F  F
  0.0182385918908152  0.6942606598533319  0.2804907795024555   F  F  F
  0.7671974026587041  0.1977837332428707  0.2806234746664099   F  F  F
  0.7604086657866798  0.9390522163756203  0.2817010740816255   F  F  F
  0.8437641344815062  0.8494893507992803  0.3769896171775599   F  F  F
  0.4303290530889754  0.0251319877832969  0.1846522807146656   F   F   F
  0.1738246993512873  0.0342811260384944  0.4721493615426859   F  F  F
  0.0991568895701533  0.6150480406110077  0.0955173689049218   F   F   F
  0.9298929223715575  0.0275189177603394  0.1878756631536689   F   F   F
  0.0128892893939110  0.4487217362895052  0.2804113726558898   F  F  F
  0.4427653099020096  0.7856637825636948  0.4678614212383910   F  F  F
  0.0949927979118179  0.6196644428987046  0.3780666145031368   F  F  F
  0.5921751849362806  0.1006742124141553  0.0947759565094870   F   F   F
  0.3458383836785544  0.8601576652201146  0.0933369061654616   F   F   F
  0.5173425846406642  0.6853912858483464  0.2808307483604584   F  F  F
  0.8614445895583742  0.6161175923221833  0.0937512895104362   F   F   F
  0.1012792313741002  0.3755020137289335  0.0899049613633665   F   F   F
  0.9424145252481253  0.5467915913873540  0.1843278624385007   F   F   F
  0.1040590386910907  0.8567701692338048  0.0970850815209019   F   F   F
  0.1748613090353857  0.5405241168335877  0.1873487133014962   F   F   F
  0.6921669487807165  0.7963341571844396  0.1909268284247432   F   F   F
  0.9398262428527867  0.0296929778397392  0.4704731123097941   F  F  F
  0.6843375425572518  0.0254867259839315  0.1881173618418330   F   F   F
  0.3659113131440331  0.3857137789380805  0.3823109661398783   F  F  F
  0.4435187659264703  0.0344639388285844  0.4723509500696085   F  F  F
  0.5938373071785790  0.8423464191346283  0.3716474124254995   F  F  F
  0.3369918959225089  0.6159890194955864  0.0940029850174824   F   F   F
  0.9381703815624520  0.7990770357422896  0.4688063609140214   F  F  F
  0.9370654039816619  0.5359543937587870  0.4688283203525379   F  F  F
  0.9394489499274101  0.7830881175850593  0.1862683944837968   F   F   F
  0.6046236471546211  0.6150574954913171  0.3755319426516788   F  F  F
  0.1819820653913027  0.7806959450136617  0.1839709010496833   F   F   F
  0.4361990025401639  0.5339668899903671  0.1889543663764712   F   F   F
  0.4312894936085314  0.2741937453529459  0.1873041453835640   F   F   F
  0.0974478858629269  0.8590009617512520  0.3786237713127726   F  F  F
  0.5940155163600309  0.8741263751334856  0.0933497925631528   F   F   F
  0.4325017677760724  0.5311766770558665  0.4708362768718610   F  F  F
  0.8629633723520165  0.6281428897899762  0.3750748866522983   F  F  F
  0.3587237501188340  0.6158405104822889  0.3787283384725781   F  F  F
  0.5202433694424002  0.4594845034948379  0.2854749956898715   F  F  F
  0.1777407979743231  0.0243136807224644  0.1868458965798183   F   F   F
  0.2668212123709768  0.4513856580902931  0.2836777820348590   F  F  F
  0.26304177226994585  0.1987219445962512  0.5321892363319171   T   T   T
