Pt Pd Ni Co Fe O 
   1.00000000000000     
     8.9397770486072758   -5.1814726206920749    0.0463427823500005
     0.0136389075752380   10.3931643794297610   -0.0092827509108429
     0.0877940010607633   -0.0284434316271866   22.9218207117341919
Pt Pd Ni Co Fe O 
19 14 16 15 16 1 
Selective dynamics
F
  0.1799365700846636  0.0379268812919875  0.1856780020824615   F   F   F
  0.5941880154173959  0.6140528458336736  0.3764764028512357   F  F  F
  0.8628878942626144  0.8765518125234991  0.3730364680912661   F  F  F
  0.4300977811918970  0.7895342137494880  0.4712538035574576   F  F  F
  0.4468027274422468  0.7870989550271759  0.1840521719732067   F   F   F
  0.4393662641566820  0.2928284626251951  0.1841571217793287   F   F   F
  0.6936657547537806  0.5326345469607225  0.4738985412166252   F  F  F
  0.5321515254721007  0.2004682087943375  0.2805199438003707   F  F  F
  0.6984821179406199  0.7891111901079753  0.4740694453387823   F  F  F
  0.2568242887333971  0.2044364623951669  0.2832878778401804   F  F  F
  0.8436372086338153  0.3622759957318422  0.0961161439112246   F   F   F
  0.8468710340379602  0.8662693714365872  0.0914193283952045   F   F   F
  0.3511771982024268  0.1171183475607381  0.3784290247191408   F  F  F
  0.0998908743050961  0.6066687285597538  0.0909065492546475   F   F   F
  0.7737892904081917  0.9619971027882459  0.2782135218393291   F  F  F
  0.5919652239710587  0.6122152608080711  0.0982153175466323   F   F   F
  0.8530414093577932  0.1178018399330227  0.0941759347804449   F   F   F
  0.6925878247758426  0.0372629195049393  0.4686418630962391   F  F  F
  0.0995136570408810  0.3684478460904816  0.3717662458545063   F  F  F
  0.1828419331120302  0.2744979521121905  0.4734638503494439   F  F  F
  0.8530715629311921  0.6088480793057970  0.3747049426731419   F  F  F
  0.2653634404488331  0.6920974419500343  0.2841934909432289   F  F  F
  0.1833517477897146  0.7761697575592379  0.1867799574986080   F   F   F
  0.9265647420653735  0.7787273089618481  0.1879250052882924   F   F   F
  0.0967094866545182  0.8641888225207666  0.0885060916887852   F   F   F
  0.2694599778112977  0.9487119214776569  0.2830449921448404   F  F  F
  0.1750310356898327  0.5329432025592380  0.4750052865328993   F  F  F
  0.3573478512337900  0.8666258006691763  0.0899816134301616   F   F   F
  0.5234975182185602  0.4530927389072745  0.2813549732116071   F  F  F
  0.0118178078976257  0.6927372314719745  0.2823784698811464   F  F  F
  0.5187510811616041  0.7012490547563908  0.2811992729156105   F  F  F
  0.6871458144163581  0.2814684840562057  0.4712192906040594   F  F  F
  0.4338788047080758  0.5301805566280408  0.4784104802742730   F  F  F
  0.3549929772615599  0.1250011069968835  0.0901859048188385   F   F   F
  0.6884083548944986  0.0419883427120311  0.1879510765239161   F   F   F
  0.6896991536071226  0.7876210213028045  0.1880705340012625   F   F   F
  0.6009741000131541  0.1134608262867687  0.0949286113842618   F   F   F
  0.4351270560385922  0.2804885788670808  0.4674696745452619   F  F  F
  0.2610464031887933  0.4474880653965779  0.2794693375469388   F  F  F
  0.6918255258085324  0.5327499532834850  0.1878962685797774   F   F   F
  0.0164481958634859  0.9525349525462764  0.2805387897068237   F  F  F
  0.6041759338598049  0.3600889935826155  0.3748732280944820   F  F  F
  0.3360893141236048  0.3652490245660474  0.0953541136748584   F   F   F
  0.1066308071122606  0.3634610507562499  0.0942433804036114   F   F   F
  0.8484699126146708  0.1204817721864694  0.3711647257091090   F  F  F
  0.8458037820869819  0.6124526487747914  0.0942224148524531   F   F   F
  0.0127646449136981  0.4438034911159705  0.2780531075217653   F  F  F
  0.6881507712012436  0.2819767019002981  0.1882565622658561   F   F   F
  0.9332594618794566  0.2811239384025027  0.4646310388151559   F  F  F
  0.9389345611067427  0.5350698162997013  0.4661361972302090   F  F  F
  0.3485261103889863  0.3687126592084679  0.3784124348196386   F  F  F
  0.9354729117804652  0.2822434200086690  0.1897231046223027   F   F   F
  0.1783574707039555  0.7893066052786279  0.4661463080403596   F  F  F
  0.7714396864694529  0.4469559129088697  0.2772955594831786   F  F  F
  0.9494513735248611  0.0288273056884827  0.4660372275814909   F  F  F
  0.3467190336731325  0.6162114360574625  0.3781830922112968   F  F  F
  0.5264542800037700  0.9551395741191857  0.2841279982655703   F  F  F
  0.4289444031885964  0.0323947515079601  0.4670314171550282   F  F  F
  0.1731226003346791  0.2831690885354448  0.1865072103528860   F   F   F
  0.7766521360833438  0.2104242768056006  0.2802792134637864   F  F  F
  0.9391061543873604  0.0482740489453448  0.1874039972822530   F   F   F
  0.7682015964242886  0.7003984362649922  0.2804128796274361   F  F  F
  0.6012257849558296  0.8697089357919410  0.0889366165846184   F   F   F
  0.1052677076331336  0.8623998654753297  0.3797684041638282   F  F  F
  0.0134591700055379  0.2090712122012784  0.2792318316774908   F  F  F
  0.1038172704398761  0.1224288253774830  0.0915789906503193   F   F   F
  0.1900051428383964  0.0292932968516669  0.4696629577421236   F  F  F
  0.3484630117367473  0.6109544280542494  0.0888367479709942   F   F   F
  0.4204116412126311  0.5274551567567443  0.1878429028034319   F   F   F
  0.3539224058758930  0.8651095872338961  0.3771560427617326   F  F  F
  0.8491372931406473  0.3609341077384309  0.3723327644744369   F  F  F
  0.1845316470961933  0.5211080012279865  0.1860492572604571   F   F   F
  0.0997803522365887  0.1175739630603120  0.3772642015854422   F  F  F
  0.4454397793692095  0.0367662489126559  0.1864510228096208   F   F   F
  0.9281818003294262  0.5211872511554461  0.1901275290802715   F   F   F
  0.1043068741507721  0.6226949179382000  0.3799140001184300   F  F  F
  0.5987096814765919  0.8731722889527292  0.3748045999547169   F  F  F
  0.9464708176224652  0.7835720640163203  0.4679828225757377   F  F  F
  0.6021934178780493  0.1120399597114900  0.3750689367076037   F  F  F
  0.6051805951556233  0.3707869002980075  0.0954534732512542   F   F   F
  0.7733343708047897  0.4497431088666291  0.5271318311602832   T   T   T
