Pt   Pd   Ni   Co   Fe                  
   1.00000000000000     
     8.9674208472195360   -5.1014978195367275   -0.0417960311804538
     0.0607125150720771   10.3143169823808716    0.0324096778658855
    -0.0101433381955165    0.0251350939078705   22.9479515893454362
   Pt   Pd   Ni   Co   Fe
    16    16    17    17    14
Selective dynamics
Direct
  0.4491532557587448  0.0430661094668778  0.1878618755352406   F   F   F
  0.4420776353896763  0.0248839138993925  0.4721798961244807   T   T   T
  0.1871351639504168  0.2922193732788139  0.4717036872259097   T   T   T
  0.1004179006179018  0.6192256944288625  0.3686023321780849   T   T   T
  0.9276421462616687  0.7770181281368320  0.4718469409857304   T   T   T
  0.3474391948465889  0.1078933798441689  0.3745813273198923   T   T   T
  0.3599880763643171  0.8733129424715926  0.0948658873358852   F   F   F
  0.7564248832026063  0.6862527310198050  0.2768857576991455   T   T   T
  0.1830563198000092  0.2940008450302827  0.1827271299504574   F   F   F
  0.5246591813152079  0.2003742599434726  0.2822224853937080   T   T   T
  0.3587172711313400  0.6071700546356524  0.0963563328240156   F   F   F
  0.8466132732091154  0.1156817566990824  0.0914733688465219   F   F   F
  0.9280168739154170  0.5290427028921960  0.4675398756021955   T   T   T
  0.9271933118614325  0.2803016449598487  0.4683032908967151   T   T   T
  0.6142835405513543  0.3684949606276733  0.3755959218689775   T   T   T
  0.0215513843201406  0.9439812232727761  0.2803425146175248   T   T   T
  0.0968617278580741  0.1212177897841283  0.3761604356002599   T   T   T
  0.3509169675781727  0.6176527080750770  0.3700405089799911   T   T   T
  0.9256298574190183  0.0255853820317000  0.1847782562269416   F   F   F
  0.7520524400779428  0.9501717308726043  0.2805883502071659   T   T   T
  0.1856164251420801  0.0261095799081923  0.4772498168974010   T   T   T
  0.1864955138693958  0.0362539006837110  0.1839249644592371   F   F   F
  0.8439872019935594  0.8683405273599876  0.3758239647490722   T   T   T
  0.5982172216373270  0.6157306572200307  0.3742761183458572   T   T   T
  0.8439603698252540  0.3677267501151320  0.0974416687796662   F   F   F
  0.4462454776455971  0.2980954236259521  0.1876901769156589   F   F   F
  0.4386981585354037  0.5461188104745640  0.4748682893384898   T   T   T
  0.4428779917554564  0.2873255348218517  0.4761119873262076   T   T   T
  0.0197506510218605  0.2133294100354945  0.2816767534669992   T   T   T
  0.1803554684985258  0.7815990567773383  0.1898884138952468   F   F   F
  0.0955651864835900  0.6122408214434358  0.0961687685332535   F   F   F
  0.9253461116190757  0.0290082803128639  0.4780693576200881   T   T   T
  0.5042780471656660  0.9384625338480101  0.2823126037956937   T   T   T
  0.6855028265738170  0.0356308236550902  0.1859640357869665   F   F   F
  0.7732923067290883  0.2078484173538288  0.2804312068003113   T   T   T
  0.1030947783214984  0.1160371161177380  0.0888002654910096   F   F   F
  0.3455327358410980  0.3641266557393176  0.3710202961386123   T   T   T
  0.3520806045052923  0.8642122717538359  0.3725443980596421   T   T   T
  0.3551926759562676  0.1249570969481937  0.0918145780421469   F   F   F
  0.6813940162298506  0.0267224233965060  0.4658898773186186   T   T   T
  0.1835617902086420  0.5381627585353916  0.4675180272922086   T   T   T
  0.2665787645404735  0.6955370138524348  0.2774216634267709   T   T   T
  0.2640290329521531  0.9398984237209947  0.2841859393474534   T   T   T
  0.1888304579318456  0.7783881345854115  0.4654229823655445   T   T   T
  0.4466301670116550  0.5423768640137610  0.1874757983598627   F   F   F
  0.3480099011963276  0.3587233116815867  0.0927310640545898   F   F   F
  0.6842720820826561  0.2782887519426075  0.4682788849142334   T   T   T
  0.5079413740781658  0.6963291120754063  0.2759610833914697   T   T   T
  0.8488545999674244  0.6266463842185033  0.0959501522857380   F   F   F
  0.2740548927301377  0.4561369044130579  0.2756923786702339   T   T   T
  0.0165829486618885  0.4582183158694927  0.2767743210341587   T   T   T
  0.6775679473139845  0.7862690775176040  0.4666416046536604   T   T   T
  0.5959097009245337  0.8734750229291769  0.3768118918842828   T   T   T
  0.5990801157443499  0.1246996175318316  0.0917706830274909   F   F   F
  0.8626912348730155  0.3662994217340492  0.3671049024815744   T   T   T
  0.6088983232758949  0.6147767907534956  0.0942365000475931   F   F   F
  0.9230874217636469  0.7698500829085759  0.1833172060085460   F   F   F
  0.0834788533637365  0.8660652595313394  0.0942362019006211   F   F   F
  0.4399794417223077  0.7833818975453681  0.1879294881253557   F   F   F
  0.6879912586683332  0.5418476323544823  0.1820310100221789   F   F   F
  0.1845664090851074  0.5382026991839766  0.1898653675255630   F   F   F
  0.4407941265872428  0.7883497233888451  0.4626796948971301   T   T   T
  0.8577281252143749  0.6173329002446056  0.3703875552587237   T   T   T
  0.9327543241882879  0.5363492017028761  0.1893649524834018   F   F   F
  0.6764681263202164  0.7779844125112660  0.1852673276294681   F   F   F
  0.5024185146784809  0.4482913538119961  0.2820255985004354   T   T   T
  0.7722794869357379  0.4483549279572043  0.2815887769847095   T   T   T
  0.1033112758865329  0.3608751592294297  0.0887584781754853   F   F   F
  0.6851313924215598  0.5371733262465523  0.4684983784951791   T   T   T
  0.5932322461842006  0.3618493925939745  0.0939100729548201   F   F   F
  0.1041582824147204  0.3718435009749856  0.3746867558690382   T   T   T
  0.8552789728414965  0.8652401450183689  0.0934859548681075   F   F   F
  0.8391983090195279  0.1220790613536749  0.3756983059725876   T   T   T
  0.0982917770657208  0.8636598214929582  0.3768353796790531   T   T   T
  0.2709190012626883  0.2057738646516087  0.2835596022755545   T   T   T
  0.9289604527728912  0.2864401986552210  0.1888255089181001   F   F   F
  0.6026023918041545  0.8605437255364947  0.0949861787075648   F   F   F
  0.6914337028730628  0.2889905138981348  0.1915066644293262   F   F   F
  0.0125139446752016  0.6934557091344148  0.2780396465102256   T   T   T
  0.6013741468535834  0.1074735325660151  0.3754916107946403   T   T   T
 
  0.00000000E+00  0.00000000E+00  0.00000000E+00
  0.00000000E+00  0.00000000E+00  0.00000000E+00
  0.00000000E+00  0.00000000E+00  0.00000000E+00
  0.00000000E+00  0.00000000E+00  0.00000000E+00
  0.00000000E+00  0.00000000E+00  0.00000000E+00
  0.00000000E+00  0.00000000E+00  0.00000000E+00
  0.00000000E+00  0.00000000E+00  0.00000000E+00
  0.00000000E+00  0.00000000E+00  0.00000000E+00
  0.00000000E+00  0.00000000E+00  0.00000000E+00
  0.00000000E+00  0.00000000E+00  0.00000000E+00
  0.00000000E+00  0.00000000E+00  0.00000000E+00
  0.00000000E+00  0.00000000E+00  0.00000000E+00
  0.00000000E+00  0.00000000E+00  0.00000000E+00
  0.00000000E+00  0.00000000E+00  0.00000000E+00
  0.00000000E+00  0.00000000E+00  0.00000000E+00
  0.00000000E+00  0.00000000E+00  0.00000000E+00
  0.00000000E+00  0.00000000E+00  0.00000000E+00
  0.00000000E+00  0.00000000E+00  0.00000000E+00
  0.00000000E+00  0.00000000E+00  0.00000000E+00
  0.00000000E+00  0.00000000E+00  0.00000000E+00
  0.00000000E+00  0.00000000E+00  0.00000000E+00
  0.00000000E+00  0.00000000E+00  0.00000000E+00
  0.00000000E+00  0.00000000E+00  0.00000000E+00
  0.00000000E+00  0.00000000E+00  0.00000000E+00
  0.00000000E+00  0.00000000E+00  0.00000000E+00
  0.00000000E+00  0.00000000E+00  0.00000000E+00
  0.00000000E+00  0.00000000E+00  0.00000000E+00
  0.00000000E+00  0.00000000E+00  0.00000000E+00
  0.00000000E+00  0.00000000E+00  0.00000000E+00
  0.00000000E+00  0.00000000E+00  0.00000000E+00
  0.00000000E+00  0.00000000E+00  0.00000000E+00
  0.00000000E+00  0.00000000E+00  0.00000000E+00
  0.00000000E+00  0.00000000E+00  0.00000000E+00
  0.00000000E+00  0.00000000E+00  0.00000000E+00
  0.00000000E+00  0.00000000E+00  0.00000000E+00
  0.00000000E+00  0.00000000E+00  0.00000000E+00
  0.00000000E+00  0.00000000E+00  0.00000000E+00
  0.00000000E+00  0.00000000E+00  0.00000000E+00
  0.00000000E+00  0.00000000E+00  0.00000000E+00
  0.00000000E+00  0.00000000E+00  0.00000000E+00
  0.00000000E+00  0.00000000E+00  0.00000000E+00
  0.00000000E+00  0.00000000E+00  0.00000000E+00
  0.00000000E+00  0.00000000E+00  0.00000000E+00
  0.00000000E+00  0.00000000E+00  0.00000000E+00
  0.00000000E+00  0.00000000E+00  0.00000000E+00
  0.00000000E+00  0.00000000E+00  0.00000000E+00
  0.00000000E+00  0.00000000E+00  0.00000000E+00
  0.00000000E+00  0.00000000E+00  0.00000000E+00
  0.00000000E+00  0.00000000E+00  0.00000000E+00
  0.00000000E+00  0.00000000E+00  0.00000000E+00
  0.00000000E+00  0.00000000E+00  0.00000000E+00
  0.00000000E+00  0.00000000E+00  0.00000000E+00
  0.00000000E+00  0.00000000E+00  0.00000000E+00
  0.00000000E+00  0.00000000E+00  0.00000000E+00
  0.00000000E+00  0.00000000E+00  0.00000000E+00
  0.00000000E+00  0.00000000E+00  0.00000000E+00
  0.00000000E+00  0.00000000E+00  0.00000000E+00
  0.00000000E+00  0.00000000E+00  0.00000000E+00
  0.00000000E+00  0.00000000E+00  0.00000000E+00
  0.00000000E+00  0.00000000E+00  0.00000000E+00
  0.00000000E+00  0.00000000E+00  0.00000000E+00
  0.00000000E+00  0.00000000E+00  0.00000000E+00
  0.00000000E+00  0.00000000E+00  0.00000000E+00
  0.00000000E+00  0.00000000E+00  0.00000000E+00
  0.00000000E+00  0.00000000E+00  0.00000000E+00
  0.00000000E+00  0.00000000E+00  0.00000000E+00
  0.00000000E+00  0.00000000E+00  0.00000000E+00
  0.00000000E+00  0.00000000E+00  0.00000000E+00
  0.00000000E+00  0.00000000E+00  0.00000000E+00
  0.00000000E+00  0.00000000E+00  0.00000000E+00
  0.00000000E+00  0.00000000E+00  0.00000000E+00
  0.00000000E+00  0.00000000E+00  0.00000000E+00
  0.00000000E+00  0.00000000E+00  0.00000000E+00
  0.00000000E+00  0.00000000E+00  0.00000000E+00
  0.00000000E+00  0.00000000E+00  0.00000000E+00
  0.00000000E+00  0.00000000E+00  0.00000000E+00
  0.00000000E+00  0.00000000E+00  0.00000000E+00
  0.00000000E+00  0.00000000E+00  0.00000000E+00
  0.00000000E+00  0.00000000E+00  0.00000000E+00
  0.00000000E+00  0.00000000E+00  0.00000000E+00
