Pt   Pd   Ni   Co   Fe   
1.0
8.9674208472195360 -5.1014978195367275 -0.0417960311804538
0.0607125150720771 10.3143169823808716 0.0324096778658855
-0.0101433381955165 0.0251350939078705 22.9479515893454362
Pt   Pd   Ni   Co   Fe   
16   16   17   17   14   
Selective dynamics
Direct
0.4491532557587439 0.043066109466874974 0.18786187553523845    F   F   F
0.43795632116959804 0.03678876899091445 0.46932941343211076    T   T   T
0.18514538829136926 0.2864810796933277 0.47189327222430943    T   T   T
0.09273042222203787 0.6122622823828673 0.3682530636544734    T   T   T
0.9289856649806532 0.7834744184741353 0.4681343065637724    T   T   T
0.3575868246127697 0.12066479581444421 0.37258716763597466    T   T   T
0.35998807636431646 0.8733129424715905 0.09486588733588795    F   F   F
0.7651162015077012 0.6843087149223104 0.27910573552582674    T   T   T
0.18305631980000683 0.29400084503027946 0.18272712995045706    F   F   F
0.515646059935422 0.2025965145453553 0.28301447365130844    T   T   T
0.3587172711313423 0.6071700546356511 0.09635633282401772    F   F   F
0.8466132732091154 0.11568175669907899 0.09147336884652173    F   F   F
0.9292045601565482 0.529464795653329 0.46787001730528255    T   T   T
0.9250199429188783 0.2747387002947287 0.46982195921695513    T   T   T
0.6079446419144346 0.3699712861851999 0.37140339880533746    T   T   T
0.020305487744582594 0.9426388476364771 0.2810730170700539    T   T   T
0.10218724146871826 0.12470150027897178 0.37429674257835077    T   T   T
0.356934303489935 0.6140625331545256 0.3758741171246065    T   T   T
0.9256298574190175 0.02558538203169903 0.1847782562269425    F   F   F
0.764002850035887 0.9487682129718678 0.2837322552103213    T   T   T
0.180977569854988 0.036289236535543515 0.4707798048732142    T   T   T
0.18649551386939345 0.03625390068370781 0.18392496445923864    F   F   F
0.8505607058408865 0.8630577819089502 0.377286105786854    T   T   T
0.6121642039731368 0.6220019639674924 0.3753564792192009    T   T   T
0.8439603698252526 0.3677267501151294 0.09744166877966962    F   F   F
0.44624547764559946 0.2980954236259494 0.18769017691566178    F   F   F
0.43363450362034517 0.5292699047860921 0.4699845580773662    T   T   T
0.4326087243831633 0.2900814150834297 0.4679285593811646    T   T   T
0.009377892060725318 0.20584705158655445 0.28114735816553993    T   T   T
0.1803554684985234 0.781599056777335 0.18988841389524785    F   F   F
0.09556518648358917 0.6122408214434377 0.09616876853325078    F   F   F
0.9229071214879622 0.029954447607859546 0.46830383571074813    T   T   T
0.5111488076829132 0.9527676867764577 0.28566982205175856    T   T   T
0.6855028265738196 0.03563082365508982 0.1859640357869662    F   F   F
0.7629259344055683 0.20675597029575998 0.282467574530962    T   T   T
0.10309477832149677 0.11603711611774056 0.08880026549100944    F   F   F
0.3752490038237458 0.37680156622959055 0.3772485762496394    T   T   T
0.3488534400578584 0.8623111877154893 0.37393478577783834    T   T   T
0.3551926759562653 0.1249570969481937 0.09181457804215021    F   F   F
0.6830330449840767 0.03507771807597856 0.4668085364918327    T   T   T
0.181709533779314 0.5267275125093831 0.4694711953392713    T   T   T
0.26133809528378205 0.6982548892098895 0.2790831348187046    T   T   T
0.26238139310677033 0.9429484922572361 0.2847199006930468    T   T   T
0.1816892736840177 0.7842797767102601 0.46694730580720517    T   T   T
0.44663016701165165 0.5423768640137621 0.18747579835986056    F   F   F
0.34800990119632785 0.3587233116815868 0.09273106405458816    F   F   F
0.6824671468855105 0.28043040135435654 0.4671471883431962    T   T   T
0.5161704236066522 0.6959993980741819 0.2804426703302531    T   T   T
0.8488545999674231 0.6266463842185012 0.095950152285737    F   F   F
0.26723260288325346 0.4479662207123798 0.2813485427875067    T   T   T
0.010659355834067165 0.4562731258516748 0.2765745893323253    T   T   T
0.6851599502699164 0.7815521221610156 0.46718786592681166    T   T   T
0.6042637858522509 0.8735780390222332 0.3776973655458    T   T   T
0.5990801157443472 0.12469961753183414 0.09177068302749317    F   F   F
0.8474368685802126 0.3600502476114715 0.37184514066846275    T   T   T
0.6088983232758934 0.6147767907534925 0.09423650004759382    F   F   F
0.9230874217636462 0.7698500829085767 0.18331720600854548    F   F   F
0.08347885336373953 0.8660652595313402 0.09423620190061877    F   F   F
0.43997944172230935 0.7833818975453702 0.18792948812535717    F   F   F
0.6879912586683323 0.5418476323544843 0.18203101002218094    F   F   F
0.18456640908511013 0.5382026991839779 0.18986536752556324    F   F   F
0.44773612226099563 0.7842783938005881 0.4705668305597595    T   T   T
0.8452596877595916 0.6119761219692524 0.3739755597666259    T   T   T
0.932754324188286 0.5363492017028746 0.18936495248340068    F   F   F
0.6764681263202169 0.777984412511265 0.18526732762947154    F   F   F
0.5161255757083202 0.4426719236482897 0.2840359730357133    T   T   T
0.7686737270843575 0.44059420746658906 0.2811564386537505    T   T   T
0.10331127588653469 0.3608751592294278 0.08875847817548804    F   F   F
0.6766484486665885 0.5367807807895452 0.46789449016051576    T   T   T
0.5932322461841975 0.36184939259397164 0.09391007295482313    F   F   F
0.09318741149821103 0.36628426556056626 0.37307319121653776    T   T   T
0.8552789728414932 0.8652401450183691 0.09348595486811052    F   F   F
0.8461627510216214 0.1208786061155533 0.37729441052558127    T   T   T
0.08483333893802242 0.857689432951536 0.37418005857848585    T   T   T
0.27398666383929565 0.20026881267126426 0.28151863159464036    T   T   T
0.9289604527728939 0.2864401986552227 0.18882550891809702    F   F   F
0.6026023918041581 0.8605437255364929 0.09498617870756167    F   F   F
0.6914337028730662 0.28899051389813596 0.1915066644293279    F   F   F
0.015030227733084291 0.6946470417445442 0.2793547484145072    T   T   T
0.6108998202032119 0.1186248623799769 0.3756259839578761    T   T   T
