Pt   Pd   Ni   Co   Fe                  
   1.00000000000000     
     9.0348149110160616   -5.1878499051499176   -0.0082873863270575
    -0.0577959330522346   10.2815772078688017   -0.0342183747745633
    -0.0094094525872619   -0.0583071360966104   22.9315243927375150
   Pt   Pd   Ni   Co   Fe
    17    17    16    16    14
Selective dynamics
Direct
  0.5160902059851772  0.9513742002867135  0.2848718761985075   T   T   T
  0.2576622881378258  0.9471068317810827  0.2797149557529624   T   T   T
  0.4284926768809996  0.7898353548564785  0.1835997886830043   F   F   F
  0.9301532354872535  0.2776603099290043  0.1861025286305846   F   F   F
  0.6913484769869955  0.5472755022558615  0.4684914371482829   T   T   T
  0.5920920924910220  0.1170155993886866  0.0977007776292638   F   F   F
  0.1803179962680795  0.7933818994832090  0.4742616793872163   T   T   T
  0.4308891758236296  0.2927137542692781  0.4699128946553043   T   T   T
  0.0210175522515383  0.4506863871612472  0.2819999633147826   T   T   T
  0.4275302607148319  0.5290802020529526  0.1832540771322542   F   F   F
  0.5127834527309707  0.6849675053146066  0.2858953539558074   T   T   T
  0.5997270599419481  0.1149067808767235  0.3832352255022149   T   T   T
  0.8580050846192364  0.6333656191044525  0.0935598793744745   F   F   F
  0.7751601442992561  0.9497537117031029  0.2867573447060589   T   T   T
  0.1097761421051686  0.6227384801756202  0.0903450857795534   F   F   F
  0.9418618867131840  0.0294965134162837  0.1839054746900999   F   F   F
  0.0930409659309985  0.1187324805094628  0.3754840105824311   T   T   T
  0.3358491770159304  0.3532717415254609  0.0899999559496294   F   F   F
  0.7685221157494087  0.2029570538408736  0.2856037323061606   T   T   T
  0.4341352968650432  0.7800743897916405  0.4763956154236013   T   T   T
  0.8513967921678471  0.3674536556646117  0.0936719496780540   F   F   F
  0.3487823305100310  0.1175113031615009  0.3767337172153848   T   T   T
  0.4303162795477178  0.2707664371838447  0.1857220319806814   F   F   F
  0.7709966599577655  0.6893102281853027  0.2819022449078869   T   T   T
  0.1075023484176319  0.6238947601734628  0.3784506117273772   T   T   T
  0.9334172629424913  0.5401392415272852  0.1896313713585585   F   F   F
  0.2656224200562476  0.2062314842439263  0.2799258239076226   T   T   T
  0.9480199633613483  0.0474739505459010  0.4789726272184264   T   T   T
  0.6048482119325698  0.8702565084001961  0.0898232580845786   F   F   F
  0.6896273431394206  0.7833236039838098  0.1854340784149784   F   F   F
  0.6913403553984504  0.0468986423040085  0.4820415158481491   T   T   T
  0.2656162968982801  0.6973818914019917  0.2818527559852875   T   T   T
  0.5993140861511677  0.6149899905711180  0.0892031124711252   F   F   F
  0.8526189503678442  0.3747277490576214  0.3806630543616519   T   T   T
  0.1829449633103764  0.0279909500242184  0.1851240187817353   F   F   F
  0.1076129032141395  0.8773991354026620  0.0920192448869273   F   F   F
  0.9455330951703331  0.7890358829928630  0.1876568801468821   F   F   F
  0.9327516829135726  0.5396575344513987  0.4719247742926134   T   T   T
  0.5984280462016542  0.3642558036227754  0.0939470120406796   F   F   F
  0.3423659936759478  0.8713603697179622  0.0920885703358252   F   F   F
  0.8615432514400325  0.8783737697903149  0.0883501863745551   F   F   F
  0.7621689776816127  0.4474901258055316  0.2825188478978168   T   T   T
  0.9393312822878663  0.7898602978470018  0.4645930243368793   T   T   T
  0.4314776631527124  0.0311840483725305  0.1891143444551062   F   F   F
  0.6839198582106434  0.5252650995124597  0.1863661152194993   F   F   F
  0.8492645140486188  0.8630527685181849  0.3799507265590171   T   T   T
  0.6794733543397697  0.2758026375769376  0.1934339142322372   F   F   F
  0.0993885888586874  0.1115190014634493  0.0908798072892409   F   F   F
  0.0216564142813160  0.2004698805295896  0.2797547913483703   T   T   T
  0.9423889619085092  0.2971667137062040  0.4682616494579039   T   T   T
  0.0121613727993991  0.7012944698421284  0.2833569443341091   T   T   T
  0.3498253362986432  0.6194703341130108  0.0867836741372585   F   F   F
  0.1007724782734414  0.3636396310340544  0.0921338651270602   F   F   F
  0.1853491665433787  0.0384293804408081  0.4668254486058338   T   T   T
  0.3635519198364623  0.3845786742776925  0.3712559013642938   T   T   T
  0.1826500706315386  0.7901918075300287  0.1845444176700823   F   F   F
  0.5960611637547871  0.8549462127737371  0.3808789302931849   T   T   T
  0.1798910192528425  0.2793793200907331  0.1843488521459591   F   F   F
  0.6838302448708011  0.2944193018512209  0.4709150071856798   T   T   T
  0.2621105934536792  0.4434094771980345  0.2791368313614802   T   T   T
  0.1072173340284847  0.3702464596616612  0.3728721318476733   T   T   T
  0.8539439972435612  0.6255109495987975  0.3755353026013860   T   T   T
  0.5218182608024382  0.4406168419059442  0.2840595763067138   T   T   T
  0.6006146206506361  0.3767525408227595  0.3721340796504073   T   T   T
  0.1820386225958188  0.5276403792603759  0.1820568278568473   F   F   F
  0.0878993620083747  0.8626841596849454  0.3738938180178062   T   T   T
  0.4293512702514709  0.0416079445168459  0.4752462879837462   T   T   T
  0.5229671704188039  0.2074919215643077  0.2821114434024966   T   T   T
  0.3426360797079084  0.1088363447562628  0.0924297356509811   F   F   F
  0.8616643959892301  0.1176754090051588  0.0906991704915683   F   F   F
  0.3550976523578558  0.8676286366100984  0.3827571608580129   T   T   T
  0.4345632287932585  0.5386716944669823  0.4674558959154481   T   T   T
  0.1725958260590643  0.5330013131604637  0.4706299450115408   T   T   T
  0.1912472250203420  0.3114266140571587  0.4618762010742655   T   T   T
  0.8466875327993806  0.1088405726381898  0.3824823846443721   T   T   T
  0.3486189636040471  0.5995782017718335  0.3785342519324454   T   T   T
  0.6798646149552567  0.0347512538608328  0.1925377477711336   F   F   F
  0.6935045227310491  0.7980118859095550  0.4653186924099476   T   T   T
  0.0179349069593351  0.9449703489277405  0.2816637160557704   T   T   T
  0.6076035123881222  0.6149120523201201  0.3749027769340026   T   T   T
 
  0.00000000E+00  0.00000000E+00  0.00000000E+00
  0.00000000E+00  0.00000000E+00  0.00000000E+00
  0.00000000E+00  0.00000000E+00  0.00000000E+00
  0.00000000E+00  0.00000000E+00  0.00000000E+00
  0.00000000E+00  0.00000000E+00  0.00000000E+00
  0.00000000E+00  0.00000000E+00  0.00000000E+00
  0.00000000E+00  0.00000000E+00  0.00000000E+00
  0.00000000E+00  0.00000000E+00  0.00000000E+00
  0.00000000E+00  0.00000000E+00  0.00000000E+00
  0.00000000E+00  0.00000000E+00  0.00000000E+00
  0.00000000E+00  0.00000000E+00  0.00000000E+00
  0.00000000E+00  0.00000000E+00  0.00000000E+00
  0.00000000E+00  0.00000000E+00  0.00000000E+00
  0.00000000E+00  0.00000000E+00  0.00000000E+00
  0.00000000E+00  0.00000000E+00  0.00000000E+00
  0.00000000E+00  0.00000000E+00  0.00000000E+00
  0.00000000E+00  0.00000000E+00  0.00000000E+00
  0.00000000E+00  0.00000000E+00  0.00000000E+00
  0.00000000E+00  0.00000000E+00  0.00000000E+00
  0.00000000E+00  0.00000000E+00  0.00000000E+00
  0.00000000E+00  0.00000000E+00  0.00000000E+00
  0.00000000E+00  0.00000000E+00  0.00000000E+00
  0.00000000E+00  0.00000000E+00  0.00000000E+00
  0.00000000E+00  0.00000000E+00  0.00000000E+00
  0.00000000E+00  0.00000000E+00  0.00000000E+00
  0.00000000E+00  0.00000000E+00  0.00000000E+00
  0.00000000E+00  0.00000000E+00  0.00000000E+00
  0.00000000E+00  0.00000000E+00  0.00000000E+00
  0.00000000E+00  0.00000000E+00  0.00000000E+00
  0.00000000E+00  0.00000000E+00  0.00000000E+00
  0.00000000E+00  0.00000000E+00  0.00000000E+00
  0.00000000E+00  0.00000000E+00  0.00000000E+00
  0.00000000E+00  0.00000000E+00  0.00000000E+00
  0.00000000E+00  0.00000000E+00  0.00000000E+00
  0.00000000E+00  0.00000000E+00  0.00000000E+00
  0.00000000E+00  0.00000000E+00  0.00000000E+00
  0.00000000E+00  0.00000000E+00  0.00000000E+00
  0.00000000E+00  0.00000000E+00  0.00000000E+00
  0.00000000E+00  0.00000000E+00  0.00000000E+00
  0.00000000E+00  0.00000000E+00  0.00000000E+00
  0.00000000E+00  0.00000000E+00  0.00000000E+00
  0.00000000E+00  0.00000000E+00  0.00000000E+00
  0.00000000E+00  0.00000000E+00  0.00000000E+00
  0.00000000E+00  0.00000000E+00  0.00000000E+00
  0.00000000E+00  0.00000000E+00  0.00000000E+00
  0.00000000E+00  0.00000000E+00  0.00000000E+00
  0.00000000E+00  0.00000000E+00  0.00000000E+00
  0.00000000E+00  0.00000000E+00  0.00000000E+00
  0.00000000E+00  0.00000000E+00  0.00000000E+00
  0.00000000E+00  0.00000000E+00  0.00000000E+00
  0.00000000E+00  0.00000000E+00  0.00000000E+00
  0.00000000E+00  0.00000000E+00  0.00000000E+00
  0.00000000E+00  0.00000000E+00  0.00000000E+00
  0.00000000E+00  0.00000000E+00  0.00000000E+00
  0.00000000E+00  0.00000000E+00  0.00000000E+00
  0.00000000E+00  0.00000000E+00  0.00000000E+00
  0.00000000E+00  0.00000000E+00  0.00000000E+00
  0.00000000E+00  0.00000000E+00  0.00000000E+00
  0.00000000E+00  0.00000000E+00  0.00000000E+00
  0.00000000E+00  0.00000000E+00  0.00000000E+00
  0.00000000E+00  0.00000000E+00  0.00000000E+00
  0.00000000E+00  0.00000000E+00  0.00000000E+00
  0.00000000E+00  0.00000000E+00  0.00000000E+00
  0.00000000E+00  0.00000000E+00  0.00000000E+00
  0.00000000E+00  0.00000000E+00  0.00000000E+00
  0.00000000E+00  0.00000000E+00  0.00000000E+00
  0.00000000E+00  0.00000000E+00  0.00000000E+00
  0.00000000E+00  0.00000000E+00  0.00000000E+00
  0.00000000E+00  0.00000000E+00  0.00000000E+00
  0.00000000E+00  0.00000000E+00  0.00000000E+00
  0.00000000E+00  0.00000000E+00  0.00000000E+00
  0.00000000E+00  0.00000000E+00  0.00000000E+00
  0.00000000E+00  0.00000000E+00  0.00000000E+00
  0.00000000E+00  0.00000000E+00  0.00000000E+00
  0.00000000E+00  0.00000000E+00  0.00000000E+00
  0.00000000E+00  0.00000000E+00  0.00000000E+00
  0.00000000E+00  0.00000000E+00  0.00000000E+00
  0.00000000E+00  0.00000000E+00  0.00000000E+00
  0.00000000E+00  0.00000000E+00  0.00000000E+00
  0.00000000E+00  0.00000000E+00  0.00000000E+00
