Pt   Pd   Ni   Co   Fe   
1.0
9.0348149110160616 -5.1878499051499176 -0.0082873863270575
-0.0577959330522346 10.2815772078688017 -0.0342183747745633
-0.0094094525872619 -0.0583071360966104 22.9315243927375150
Pt   Pd   Ni   Co   Fe   
17   17   16   16   14   
Selective dynamics
Direct
0.5265835917064952 0.9597775306148837 0.28294702084490525    T   T   T
0.2698945570083932 0.9577298911968166 0.2807713616436817    T   T   T
0.42849267688100096 0.7898353548564804 0.18359978868300394    F   F   F
0.9301532354872569 0.27766030992900165 0.18610252863058624    F   F   F
0.6872978724094948 0.5398127302220187 0.4673200782369484    T   T   T
0.5920920924910233 0.11701559938868696 0.09770077762926205    F   F   F
0.18721509269384298 0.7819616729455888 0.47523503695511493    T   T   T
0.424789094543536 0.2606743978663756 0.4701328546262836    T   T   T
0.011015513699942176 0.4513409981361502 0.2817407655713015    T   T   T
0.4275302607148335 0.529080202052953 0.1832540771322521    F   F   F
0.525731279712757 0.7095626859457455 0.282116568963191    T   T   T
0.5880763352177462 0.11026656517923687 0.3738036265325463    T   T   T
0.8580050846192364 0.6333656191044534 0.09355987937447552    F   F   F
0.7657404650099817 0.9506771786239661 0.2807336703472583    T   T   T
0.10977614210516559 0.6227384801756178 0.09034508577955232    F   F   F
0.9418618867131837 0.02949651341628656 0.18390547469009724    F   F   F
0.09434018121166181 0.10254008679880992 0.3757465592613545    T   T   T
0.3358491770159271 0.35327174152546337 0.08999995594963231    F   F   F
0.7581102358928934 0.19443830961431113 0.282096374533278    T   T   T
0.42295516601399974 0.7699779060087627 0.4715994337044391    T   T   T
0.85139679216785 0.3674536556646093 0.09367194967805646    F   F   F
0.346978922546965 0.1081562333587287 0.37498651640953956    T   T   T
0.43031627954771445 0.27076643718384724 0.18572203198068418    F   F   F
0.7783975682431069 0.7026306675330111 0.28176840456970076    T   T   T
0.10561477505524142 0.6378014662361736 0.3791173920097831    T   T   T
0.9334172629424944 0.5401392415272817 0.18963137135855973    F   F   F
0.26283245078152373 0.19253999241868805 0.279443680874798    T   T   T
0.9325415249189374 0.01698666248724776 0.47227294920060037    T   T   T
0.6048482119325723 0.8702565084001946 0.08982325808457679    F   F   F
0.6896273431394173 0.7833236039838116 0.18543407841498022    F   F   F
0.6691276265207187 0.015325691405233977 0.46858339386855874    T   T   T
0.2666477057308444 0.7050366541494774 0.27963707726782916    T   T   T
0.5993140861511682 0.6149899905711145 0.08920311247112202    F   F   F
0.8420318165184851 0.3715163685633173 0.3762100629107523    T   T   T
0.182944963310374 0.0279909500242201 0.18512401878173484    F   F   F
0.10761290321413919 0.8773991354026622 0.09201924488692685    F   F   F
0.945533095170332 0.7890358829928633 0.18765688014687948    F   F   F
0.9457669783133393 0.5346663933361129 0.472457206447951    T   T   T
0.5984280462016536 0.3642558036227739 0.09394701204067836    F   F   F
0.3423659936759499 0.8713603697179645 0.0920885703358225    F   F   F
0.8615432514400323 0.8783737697903164 0.08835018637455815    F   F   F
0.7633690988784841 0.4436075629319769 0.2806248418270134    T   T   T
0.9433194741038977 0.776550010296588 0.4695825281956009    T   T   T
0.43147766315270925 0.03118404837253034 0.18911434445510397    F   F   F
0.6839198582106455 0.5252650995124583 0.18636611521950133    F   F   F
0.8480636843217911 0.8588970513736186 0.3752874945272056    T   T   T
0.6794733543397693 0.2758026375769356 0.19343391423223918    F   F   F
0.09938858885868453 0.11151900146344981 0.09087980728924258    F   F   F
0.013198511284259418 0.18731563874510507 0.28111948112703483    T   T   T
0.9342486109489284 0.28134720351322984 0.47280294845208126    T   T   T
0.019684794497004724 0.7117056913637078 0.2811177905535346    T   T   T
0.3498253362986451 0.6194703341130078 0.08678367413725598    F   F   F
0.10077247827344087 0.36363963103405605 0.09213386512705843    F   F   F
0.17823948402245843 0.017934885156786717 0.47142446468335963    T   T   T
0.3501632341104415 0.3547884775914255 0.3765849561633405    T   T   T
0.18265007063153696 0.7901918075300285 0.1845444176700801    F   F   F
0.6041841029815507 0.8624966393914897 0.3740124525500029    T   T   T
0.17989101925284473 0.2793793200907317 0.18434885214596014    F   F   F
0.6791874294377896 0.2756030856380222 0.4697042439744369    T   T   T
0.26536209719165116 0.44403721971903914 0.2785649246165721    T   T   T
0.09721299380157827 0.36574307789918165 0.37865677911067375    T   T   T
0.8538650934575036 0.6251247071803622 0.37653417016345886    T   T   T
0.523200362002024 0.4425474568792358 0.28177836449105287    T   T   T
0.598428733457402 0.358675801572534 0.3728329656427769    T   T   T
0.18203862259581768 0.5276403792603783 0.18205682785684757    F   F   F
0.10300737783705781 0.8779310315369705 0.3783308381915636    T   T   T
0.41581869313875397 0.008077977319329898 0.4647443147152297    T   T   T
0.527069334847152 0.19837550897812972 0.2845064393374708    T   T   T
0.3426360797079097 0.10883634475626616 0.09242973565098377    F   F   F
0.8616643959892325 0.11767540900515903 0.090699170491568    F   F   F
0.3661931777988609 0.8784666953125835 0.37577930767496165    T   T   T
0.43641161131309936 0.5423503006613359 0.47075387898968585    T   T   T
0.18090548341945448 0.5332628184791165 0.4718204845020818    T   T   T
0.18374024537116862 0.2849254969330788 0.47585552722113206    T   T   T
0.8406045602697507 0.10445318309326926 0.3743674562989664    T   T   T
0.3576201397742907 0.624386140732959 0.3786250578819752    T   T   T
0.6798646149552564 0.03475125386083465 0.19253774777113464    F   F   F
0.67688308793796 0.7764094759649057 0.4710423928711962    T   T   T
0.021884277892304835 0.948370036237722 0.2830595526252845    T   T   T
0.6012715168694145 0.6159856758694915 0.37572347795763084    T   T   T
