Platinum  Palladium  Nickel  Cobalt  Iron  Oxygen
   1.000000000000000
 26.8390302326635251 -15.5088069955373857  0.2610371749561117
  0.0000000000000000 31.1794617591341989 -0.0663812827791770
  0.0000000000000000  0.0000000000000000 22.9220064906261953
Pt Pd Ni Co Fe O
   171   126   144   135   144   1
Selective dynamics
Direct
  0.0599800000000000  0.0126433333333336  0.1856799999999999   F   F   F
  0.1980633333333333  0.2046833333333334  0.3764799999999993   F   F   F
  0.2876300000000001  0.2921833333333331  0.3730399999999995   F   F   F
  0.1433666666666668  0.2631766666666665  0.4712499999999990   F   F   F
  0.1489333333333332  0.2623666666666662  0.1840499999999998   F   F   F
  0.1464566666666667  0.0976100000000001  0.1841599999999998   F   F   F
  0.2312233333333333  0.1775433333333332  0.4738999999999996   F   F   F
  0.1773833333333334  0.0668233333333333  0.2805199999999997   F   F   F
  0.2328266666666669  0.2630366666666667  0.4740699999999992   F   F   F
  0.0856066666666670  0.0681466666666668  0.2832899999999998   F   F   F
  0.2812133333333334  0.1207600000000002  0.0961199999999998   F   F   F
  0.2822900000000000  0.2887566666666663  0.0914199999999998   F   F   F
  0.1170600000000001  0.0390400000000003  0.3784299999999994   F   F   F
  0.0332966666666667  0.2022233333333334  0.0909099999999999   F   F   F
  0.2579300000000002  0.3206666666666667  0.2782099999999994   F   F   F
  0.1973233333333334  0.2040733333333334  0.0982199999999999   F   F   F
  0.2843466666666669  0.0392666666666668  0.0941800000000000   F   F   F
  0.2308633333333335  0.0124200000000002  0.4686399999999995   F   F   F
  0.0331699999999999  0.1228166666666666  0.3717699999999994   F   F   F
  0.3933133333333335  0.0126433333333336  0.1856799999999999   F   F   F
  0.5313966666666669  0.2046833333333333  0.3764799999999993   F   F   F
  0.6209633333333334  0.2921833333333331  0.3730399999999995   F   F   F
  0.4767000000000002  0.2631766666666666  0.4712499999999991   F   F   F
  0.4822666666666666  0.2623666666666663  0.1840499999999998   F   F   F
  0.4797900000000001  0.0976100000000001  0.1841599999999998   F   F   F
  0.5645566666666666  0.1775433333333332  0.4738999999999996   F   F   F
  0.5107166666666669  0.0668233333333334  0.2805199999999998   F   F   F
  0.5661600000000004  0.2630366666666668  0.4740699999999992   F   F   F
  0.4189400000000004  0.0681466666666668  0.2832899999999998   F   F   F
  0.6145466666666669  0.1207600000000001  0.0961199999999999   F   F   F
  0.6156233333333335  0.2887566666666664  0.0914199999999998   F   F   F
  0.4503933333333335  0.0390400000000003  0.3784299999999994   F   F   F
  0.3666300000000001  0.2022233333333334  0.0909099999999999   F   F   F
  0.5912633333333335  0.3206666666666667  0.2782099999999994   F   F   F
  0.5306566666666668  0.2040733333333333  0.0982199999999998   F   F   F
  0.6176800000000002  0.0392666666666668  0.0941800000000000   F   F   F
  0.5641966666666669  0.0124200000000002  0.4686399999999995   F   F   F
  0.3665033333333333  0.1228166666666666  0.3717699999999995   F   F   F
  0.7266466666666669  0.0126433333333335  0.1856799999999998   F   F   F
  0.8647300000000002  0.2046833333333334  0.3764799999999994   F   F   F
  0.9542966666666668  0.2921833333333331  0.3730399999999996   F   F   F
  0.8100333333333336  0.2631766666666666  0.4712499999999991   F   F   F
  0.8156000000000001  0.2623666666666662  0.1840499999999997   F   F   F
  0.8131233333333335  0.0976100000000000  0.1841599999999998   F   F   F
  0.8978900000000002  0.1775433333333332  0.4738999999999997   F   F   F
  0.8440500000000004  0.0668233333333333  0.2805199999999997   F   F   F
  0.8994933333333338  0.2630366666666668  0.4740699999999993   F   F   F
  0.7522733333333339  0.0681466666666668  0.2832899999999998   F   F   F
  0.9478800000000003  0.1207600000000003  0.0961199999999998   F   F   F
  0.9489566666666669  0.2887566666666663  0.0914199999999998   F   F   F
  0.7837266666666669  0.0390400000000003  0.3784299999999994   F   F   F
  0.6999633333333336  0.2022233333333334  0.0909099999999999   F   F   F
  0.9245966666666670  0.3206666666666667  0.2782099999999993   F   F   F
  0.8639900000000001  0.2040733333333334  0.0982199999999999   F   F   F
  0.9510133333333336  0.0392666666666667  0.0941800000000000   F   F   F
  0.8975300000000003  0.0124200000000002  0.4686399999999995   F   F   F
  0.6998366666666667  0.1228166666666665  0.3717699999999994   F   F   F
  0.0599800000000000  0.3459766666666669  0.1856799999999999   F   F   F
  0.1980633333333333  0.5380166666666666  0.3764799999999993   F   F   F
  0.2876300000000001  0.6255166666666664  0.3730399999999995   F   F   F
  0.1433666666666668  0.5965099999999998  0.4712499999999991   F   F   F
  0.1489333333333332  0.5956999999999998  0.1840499999999998   F   F   F
  0.1464566666666667  0.4309433333333333  0.1841599999999998   F   F   F
  0.2312233333333333  0.5108766666666664  0.4738999999999996   F   F   F
  0.1773833333333334  0.4001566666666666  0.2805199999999997   F   F   F
  0.2328266666666669  0.5963700000000001  0.4740699999999992   F   F   F
  0.0856066666666670  0.4014800000000000  0.2832899999999999   F   F   F
  0.2812133333333334  0.4540933333333335  0.0961199999999999   F   F   F
  0.2822900000000000  0.6220899999999997  0.0914199999999998   F   F   F
  0.1170600000000001  0.3723733333333336  0.3784299999999994   F   F   F
  0.0332966666666667  0.5355566666666669  0.0909099999999999   F   F   F
  0.2579300000000002  0.6540000000000001  0.2782099999999994   F   F   F
  0.1973233333333334  0.5374066666666666  0.0982199999999999   F   F   F
  0.2843466666666669  0.3726000000000000  0.0941800000000000   F   F   F
  0.2308633333333335  0.3457533333333335  0.4686399999999996   F   F   F
  0.0331699999999999  0.4561499999999999  0.3717699999999994   F   F   F
  0.3933133333333335  0.3459766666666668  0.1856799999999999   F   F   F
  0.5313966666666669  0.5380166666666666  0.3764799999999994   F   F   F
  0.6209633333333334  0.6255166666666663  0.3730399999999995   F   F   F
  0.4767000000000002  0.5965099999999999  0.4712499999999991   F   F   F
  0.4822666666666666  0.5956999999999997  0.1840499999999998   F   F   F
  0.4797900000000001  0.4309433333333333  0.1841599999999998   F   F   F
  0.5645566666666666  0.5108766666666664  0.4738999999999997   F   F   F
  0.5107166666666669  0.4001566666666666  0.2805199999999997   F   F   F
  0.5661600000000004  0.5963700000000001  0.4740699999999992   F   F   F
  0.4189400000000004  0.4014800000000001  0.2832899999999998   F   F   F
  0.6145466666666669  0.4540933333333335  0.0961199999999998   F   F   F
  0.6156233333333335  0.6220899999999996  0.0914199999999998   F   F   F
  0.4503933333333335  0.3723733333333336  0.3784299999999994   F   F   F
  0.3666300000000001  0.5355566666666667  0.0909099999999999   F   F   F
  0.5912633333333335  0.6539999999999999  0.2782099999999994   F   F   F
  0.5306566666666668  0.5374066666666666  0.0982199999999999   F   F   F
  0.6176800000000002  0.3726000000000000  0.0941800000000000   F   F   F
  0.5641966666666669  0.3457533333333335  0.4686399999999995   F   F   F
  0.3665033333333333  0.4561499999999998  0.3717699999999994   F   F   F
  0.7266466666666669  0.3459766666666668  0.1856799999999999   F   F   F
  0.8647300000000002  0.5380166666666667  0.3764799999999993   F   F   F
  0.9542966666666668  0.6255166666666663  0.3730399999999995   F   F   F
  0.8100333333333336  0.5965099999999999  0.4712499999999991   F   F   F
  0.8156000000000001  0.5956999999999996  0.1840499999999998   F   F   F
  0.8131233333333335  0.4309433333333334  0.1841599999999998   F   F   F
  0.8978900000000002  0.5108766666666664  0.4738999999999996   F   F   F
  0.8440500000000004  0.4001566666666666  0.2805199999999997   F   F   F
  0.8994933333333338  0.5963700000000001  0.4740699999999992   F   F   F
  0.7522733333333339  0.4014800000000002  0.2832899999999998   F   F   F
  0.9478800000000003  0.4540933333333335  0.0961199999999999   F   F   F
  0.9489566666666669  0.6220899999999996  0.0914199999999998   F   F   F
  0.7837266666666669  0.3723733333333336  0.3784299999999994   F   F   F
  0.6999633333333336  0.5355566666666667  0.0909099999999999   F   F   F
  0.9245966666666670  0.6539999999999999  0.2782099999999993   F   F   F
  0.8639900000000001  0.5374066666666666  0.0982199999999998   F   F   F
  0.9510133333333336  0.3726000000000000  0.0941800000000000   F   F   F
  0.8975300000000003  0.3457533333333335  0.4686399999999995   F   F   F
  0.6998366666666667  0.4561499999999998  0.3717699999999994   F   F   F
  0.0599800000000000  0.6793100000000002  0.1856799999999999   F   F   F
  0.1980633333333333  0.8713499999999998  0.3764799999999993   F   F   F
  0.2876300000000001  0.9588499999999996  0.3730399999999995   F   F   F
  0.1433666666666668  0.9298433333333331  0.4712499999999991   F   F   F
  0.1489333333333332  0.9290333333333327  0.1840499999999998   F   F   F
  0.1464566666666667  0.7642766666666666  0.1841599999999998   F   F   F
  0.2312233333333333  0.8442099999999996  0.4738999999999997   F   F   F
  0.1773833333333334  0.7334899999999999  0.2805199999999997   F   F   F
  0.2328266666666669  0.9297033333333333  0.4740699999999992   F   F   F
  0.0856066666666670  0.7348133333333333  0.2832899999999998   F   F   F
  0.2812133333333334  0.7874266666666667  0.0961199999999998   F   F   F
  0.2822900000000000  0.9554233333333331  0.0914199999999998   F   F   F
  0.1170600000000001  0.7057066666666669  0.3784299999999994   F   F   F
  0.0332966666666667  0.8688900000000002  0.0909099999999999   F   F   F
  0.2579300000000002  0.9873333333333333  0.2782099999999994   F   F   F
  0.1973233333333334  0.8707399999999998  0.0982199999999999   F   F   F
  0.2843466666666669  0.7059333333333333  0.0941800000000000   F   F   F
  0.2308633333333335  0.6790866666666667  0.4686399999999995   F   F   F
  0.0331699999999999  0.7894833333333333  0.3717699999999994   F   F   F
  0.3933133333333335  0.6793100000000001  0.1856799999999998   F   F   F
  0.5313966666666669  0.8713499999999997  0.3764799999999994   F   F   F
  0.6209633333333334  0.9588499999999998  0.3730399999999995   F   F   F
  0.4767000000000002  0.9298433333333332  0.4712499999999991   F   F   F
  0.4822666666666666  0.9290333333333328  0.1840499999999997   F   F   F
  0.4797900000000001  0.7642766666666668  0.1841599999999998   F   F   F
  0.5645566666666666  0.8442099999999999  0.4738999999999996   F   F   F
  0.5107166666666669  0.7334900000000000  0.2805199999999997   F   F   F
  0.5661600000000004  0.9297033333333334  0.4740699999999992   F   F   F
  0.4189400000000004  0.7348133333333333  0.2832899999999998   F   F   F
  0.6145466666666669  0.7874266666666667  0.0961199999999998   F   F   F
  0.6156233333333335  0.9554233333333331  0.0914199999999998   F   F   F
  0.4503933333333335  0.7057066666666669  0.3784299999999994   F   F   F
  0.3666300000000001  0.8688899999999999  0.0909099999999999   F   F   F
  0.5912633333333335  0.9873333333333332  0.2782099999999993   F   F   F
  0.5306566666666668  0.8707399999999998  0.0982199999999999   F   F   F
  0.6176800000000002  0.7059333333333333  0.0941800000000000   F   F   F
  0.5641966666666669  0.6790866666666668  0.4686399999999995   F   F   F
  0.3665033333333333  0.7894833333333333  0.3717699999999994   F   F   F
  0.7266466666666669  0.6793100000000001  0.1856799999999999   F   F   F
  0.8647300000000002  0.8713499999999998  0.3764799999999994   F   F   F
  0.9542966666666668  0.9588499999999998  0.3730399999999995   F   F   F
  0.8100333333333336  0.9298433333333331  0.4712499999999991   F   F   F
  0.8156000000000001  0.9290333333333328  0.1840499999999998   F   F   F
  0.8131233333333335  0.7642766666666667  0.1841599999999998   F   F   F
  0.8978900000000002  0.8442099999999997  0.4738999999999997   F   F   F
  0.8440500000000004  0.7334899999999999  0.2805199999999997   F   F   F
  0.8994933333333338  0.9297033333333333  0.4740699999999992   F   F   F
  0.7522733333333339  0.7348133333333333  0.2832899999999998   F   F   F
  0.9478800000000003  0.7874266666666667  0.0961199999999998   F   F   F
  0.9489566666666669  0.9554233333333328  0.0914199999999998   F   F   F
  0.7837266666666669  0.7057066666666669  0.3784299999999995   F   F   F
  0.6999633333333336  0.8688900000000001  0.0909099999999999   F   F   F
  0.9245966666666670  0.9873333333333332  0.2782099999999994   F   F   F
  0.8639900000000001  0.8707399999999998  0.0982199999999999   F   F   F
  0.9510133333333336  0.7059333333333334  0.0941800000000000   F   F   F
  0.8975300000000003  0.6790866666666668  0.4686399999999995   F   F   F
  0.6998366666666667  0.7894833333333331  0.3717699999999994   F   F   F
  0.0609466666666666  0.0914999999999999  0.4734599999999990   F   F   F
  0.2843566666666669  0.2029499999999999  0.3746999999999996   F   F   F
  0.0884533333333335  0.2307000000000000  0.2841899999999994   F   F   F
  0.0611166666666667  0.2587233333333335  0.1867799999999995   F   F   F
  0.3088533333333334  0.2595766666666663  0.1879299999999997   F   F   F
  0.0322366666666667  0.2880633333333332  0.0885099999999998   F   F   F
  0.0898200000000001  0.3162366666666663  0.2830399999999993   F   F   F
  0.0583433333333334  0.1776466666666668  0.4750099999999992   F   F   F
  0.1191166666666670  0.2888766666666668  0.0899799999999999   F   F   F
  0.1745000000000001  0.1510300000000000  0.2813499999999998   F   F   F
  0.0039400000000001  0.2309133333333332  0.2823799999999995   F   F   F
  0.1729166666666667  0.2337500000000000  0.2811999999999998   F   F   F
  0.2290500000000001  0.0938233333333335  0.4712199999999991   F   F   F
  0.1446266666666667  0.1767266666666666  0.4784099999999994   F   F   F
  0.3942800000000000  0.0914999999999999  0.4734599999999991   F   F   F
  0.6176900000000003  0.2029499999999999  0.3746999999999995   F   F   F
  0.4217866666666669  0.2306999999999999  0.2841899999999995   F   F   F
  0.3944500000000001  0.2587233333333334  0.1867799999999996   F   F   F
  0.6421866666666667  0.2595766666666662  0.1879299999999997   F   F   F
  0.3655700000000001  0.2880633333333331  0.0885099999999998   F   F   F
  0.4231533333333335  0.3162366666666663  0.2830399999999993   F   F   F
  0.3916766666666668  0.1776466666666668  0.4750099999999992   F   F   F
  0.4524500000000004  0.2888766666666668  0.0899799999999999   F   F   F
  0.5078333333333334  0.1510299999999999  0.2813499999999999   F   F   F
  0.3372733333333335  0.2309133333333332  0.2823799999999995   F   F   F
  0.5062500000000000  0.2337499999999999  0.2811999999999998   F   F   F
  0.5623833333333336  0.0938233333333335  0.4712199999999990   F   F   F
  0.4779600000000002  0.1767266666666667  0.4784099999999996   F   F   F
  0.7276133333333336  0.0915000000000000  0.4734599999999992   F   F   F
  0.9510233333333337  0.2029499999999998  0.3746999999999997   F   F   F
  0.7551200000000005  0.2307000000000000  0.2841899999999996   F   F   F
  0.7277833333333336  0.2587233333333334  0.1867799999999995   F   F   F
  0.9755200000000002  0.2595766666666663  0.1879299999999997   F   F   F
  0.6989033333333334  0.2880633333333331  0.0885099999999998   F   F   F
  0.7564866666666670  0.3162366666666663  0.2830399999999993   F   F   F
  0.7250100000000002  0.1776466666666668  0.4750099999999992   F   F   F
  0.7857833333333339  0.2888766666666668  0.0899799999999999   F   F   F
  0.8411666666666670  0.1510300000000000  0.2813499999999998   F   F   F
  0.6706066666666670  0.2309133333333332  0.2823799999999994   F   F   F
  0.8395833333333336  0.2337499999999999  0.2811999999999999   F   F   F
  0.8957166666666669  0.0938233333333335  0.4712199999999991   F   F   F
  0.8112933333333334  0.1767266666666666  0.4784099999999995   F   F   F
  0.0609466666666666  0.4248333333333332  0.4734599999999991   F   F   F
  0.2843566666666669  0.5362833333333332  0.3746999999999995   F   F   F
  0.0884533333333335  0.5640333333333333  0.2841899999999995   F   F   F
  0.0611166666666667  0.5920566666666666  0.1867799999999996   F   F   F
  0.3088533333333334  0.5929099999999996  0.1879299999999997   F   F   F
  0.0322366666666667  0.6213966666666663  0.0885099999999998   F   F   F
  0.0898200000000001  0.6495699999999995  0.2830399999999993   F   F   F
  0.0583433333333334  0.5109800000000001  0.4750099999999992   F   F   F
  0.1191166666666670  0.6222100000000002  0.0899799999999999   F   F   F
  0.1745000000000001  0.4843633333333333  0.2813499999999999   F   F   F
  0.0039400000000001  0.5642466666666665  0.2823799999999995   F   F   F
  0.1729166666666667  0.5670833333333334  0.2811999999999998   F   F   F
  0.2290500000000001  0.4271566666666668  0.4712199999999990   F   F   F
  0.1446266666666667  0.5100600000000000  0.4784099999999994   F   F   F
  0.3942800000000000  0.4248333333333332  0.4734599999999992   F   F   F
  0.6176900000000003  0.5362833333333332  0.3746999999999997   F   F   F
  0.4217866666666669  0.5640333333333332  0.2841899999999995   F   F   F
  0.3944500000000001  0.5920566666666667  0.1867799999999996   F   F   F
  0.6421866666666667  0.5929099999999996  0.1879299999999997   F   F   F
  0.3655700000000001  0.6213966666666664  0.0885099999999998   F   F   F
  0.4231533333333335  0.6495699999999995  0.2830399999999993   F   F   F
  0.3916766666666668  0.5109800000000001  0.4750099999999992   F   F   F
  0.4524500000000004  0.6222100000000000  0.0899799999999999   F   F   F
  0.5078333333333334  0.4843633333333332  0.2813499999999999   F   F   F
  0.3372733333333335  0.5642466666666666  0.2823799999999995   F   F   F
  0.5062500000000000  0.5670833333333332  0.2811999999999998   F   F   F
  0.5623833333333336  0.4271566666666667  0.4712199999999991   F   F   F
  0.4779600000000002  0.5100600000000000  0.4784099999999996   F   F   F
  0.7276133333333336  0.4248333333333332  0.4734599999999992   F   F   F
  0.9510233333333337  0.5362833333333331  0.3746999999999996   F   F   F
  0.7551200000000005  0.5640333333333332  0.2841899999999995   F   F   F
  0.7277833333333336  0.5920566666666667  0.1867799999999995   F   F   F
  0.9755200000000002  0.5929099999999995  0.1879299999999997   F   F   F
  0.6989033333333334  0.6213966666666664  0.0885099999999998   F   F   F
  0.7564866666666670  0.6495699999999995  0.2830399999999994   F   F   F
  0.7250100000000002  0.5109800000000000  0.4750099999999992   F   F   F
  0.7857833333333339  0.6222100000000002  0.0899799999999999   F   F   F
  0.8411666666666670  0.4843633333333332  0.2813499999999998   F   F   F
  0.6706066666666670  0.5642466666666666  0.2823799999999994   F   F   F
  0.8395833333333336  0.5670833333333332  0.2811999999999998   F   F   F
  0.8957166666666669  0.4271566666666667  0.4712199999999990   F   F   F
  0.8112933333333334  0.5100599999999997  0.4784099999999996   F   F   F
  0.0609466666666666  0.7581666666666665  0.4734599999999990   F   F   F
  0.2843566666666669  0.8696166666666665  0.3746999999999996   F   F   F
  0.0884533333333335  0.8973666666666665  0.2841899999999995   F   F   F
  0.0611166666666667  0.9253899999999998  0.1867799999999996   F   F   F
  0.3088533333333334  0.9262433333333330  0.1879299999999997   F   F   F
  0.0322366666666667  0.9547299999999995  0.0885099999999998   F   F   F
  0.0898200000000001  0.9829033333333327  0.2830399999999993   F   F   F
  0.0583433333333334  0.8443133333333332  0.4750099999999992   F   F   F
  0.1191166666666670  0.9555433333333333  0.0899799999999999   F   F   F
  0.1745000000000001  0.8176966666666665  0.2813499999999999   F   F   F
  0.0039400000000001  0.8975799999999996  0.2823799999999995   F   F   F
  0.1729166666666667  0.9004166666666666  0.2811999999999998   F   F   F
  0.2290500000000001  0.7604900000000000  0.4712199999999991   F   F   F
  0.1446266666666667  0.8433933333333332  0.4784099999999996   F   F   F
  0.3942800000000000  0.7581666666666664  0.4734599999999992   F   F   F
  0.6176900000000003  0.8696166666666665  0.3746999999999996   F   F   F
  0.4217866666666669  0.8973666666666664  0.2841899999999995   F   F   F
  0.3944500000000001  0.9253899999999999  0.1867799999999995   F   F   F
  0.6421866666666667  0.9262433333333329  0.1879299999999997   F   F   F
  0.3655700000000001  0.9547299999999996  0.0885099999999998   F   F   F
  0.4231533333333335  0.9829033333333328  0.2830399999999992   F   F   F
  0.3916766666666668  0.8443133333333332  0.4750099999999992   F   F   F
  0.4524500000000004  0.9555433333333332  0.0899799999999999   F   F   F
  0.5078333333333334  0.8176966666666665  0.2813499999999998   F   F   F
  0.3372733333333335  0.8975799999999998  0.2823799999999994   F   F   F
  0.5062500000000000  0.9004166666666664  0.2811999999999998   F   F   F
  0.5623833333333336  0.7604900000000001  0.4712199999999990   F   F   F
  0.4779600000000002  0.8433933333333332  0.4784099999999994   F   F   F
  0.7276133333333336  0.7581666666666664  0.4734599999999992   F   F   F
  0.9510233333333337  0.8696166666666664  0.3746999999999997   F   F   F
  0.7551200000000005  0.8973666666666666  0.2841899999999995   F   F   F
  0.7277833333333336  0.9253899999999999  0.1867799999999996   F   F   F
  0.9755200000000002  0.9262433333333329  0.1879299999999997   F   F   F
  0.6989033333333334  0.9547299999999996  0.0885099999999998   F   F   F
  0.7564866666666670  0.9829033333333328  0.2830399999999994   F   F   F
  0.7250100000000002  0.8443133333333332  0.4750099999999992   F   F   F
  0.7857833333333339  0.9555433333333333  0.0899799999999999   F   F   F
  0.8411666666666670  0.8176966666666665  0.2813499999999998   F   F   F
  0.6706066666666670  0.8975799999999998  0.2823799999999995   F   F   F
  0.8395833333333336  0.9004166666666664  0.2811999999999998   F   F   F
  0.8957166666666669  0.7604900000000001  0.4712199999999991   F   F   F
  0.8112933333333334  0.8433933333333331  0.4784099999999995   F   F   F
  0.1183300000000001  0.0416666666666667  0.0901900000000000   F   F   F
  0.2294700000000001  0.0139966666666669  0.1879499999999999   F   F   F
  0.2299000000000000  0.2625399999999998  0.1880700000000000   F   F   F
  0.2003233333333334  0.0378200000000001  0.0949299999999998   F   F   F
  0.1450433333333333  0.0934966666666666  0.4674699999999990   F   F   F
  0.0870166666666670  0.1491633333333332  0.2794699999999994   F   F   F
  0.2306099999999999  0.1775833333333335  0.1878999999999998   F   F   F
  0.0054833333333335  0.3175099999999995  0.2805399999999997   F   F   F
  0.2013933333333334  0.1200300000000000  0.3748700000000001   F   F   F
  0.1120300000000004  0.1217500000000003  0.0953499999999999   F   F   F
  0.0355433333333334  0.1211533333333334  0.0942399999999999   F   F   F
  0.2828233333333334  0.0401600000000002  0.3711599999999992   F   F   F
  0.2819333333333334  0.2041500000000001  0.0942200000000000   F   F   F
  0.0042533333333333  0.1479333333333331  0.2780499999999996   F   F   F
  0.2293833333333332  0.0939933333333334  0.1882599999999996   F   F   F
  0.3110866666666667  0.0937066666666670  0.4646299999999994   F   F   F
  0.4516633333333335  0.0416666666666666  0.0901900000000000   F   F   F
  0.5628033333333333  0.0139966666666668  0.1879499999999999   F   F   F
  0.5632333333333336  0.2625399999999998  0.1880699999999999   F   F   F
  0.5336566666666669  0.0378200000000002  0.0949299999999998   F   F   F
  0.4783766666666667  0.0934966666666666  0.4674699999999990   F   F   F
  0.4203500000000005  0.1491633333333332  0.2794699999999994   F   F   F
  0.5639433333333335  0.1775833333333335  0.1878999999999998   F   F   F
  0.3388166666666669  0.3175099999999996  0.2805399999999997   F   F   F
  0.5347266666666669  0.1200299999999999  0.3748700000000000   F   F   F
  0.4453633333333338  0.1217500000000003  0.0953499999999998   F   F   F
  0.3688766666666667  0.1211533333333334  0.0942399999999999   F   F   F
  0.6161566666666669  0.0401600000000002  0.3711599999999991   F   F   F
  0.6152666666666669  0.2041500000000001  0.0942200000000000   F   F   F
  0.3375866666666666  0.1479333333333331  0.2780499999999996   F   F   F
  0.5627166666666668  0.0939933333333334  0.1882599999999996   F   F   F
  0.6444200000000002  0.0937066666666670  0.4646299999999994   F   F   F
  0.7849966666666669  0.0416666666666667  0.0901900000000000   F   F   F
  0.8961366666666667  0.0139966666666668  0.1879499999999999   F   F   F
  0.8965666666666670  0.2625399999999998  0.1880699999999999   F   F   F
  0.8669900000000003  0.0378200000000001  0.0949299999999998   F   F   F
  0.8117100000000002  0.0934966666666667  0.4674699999999990   F   F   F
  0.7536833333333338  0.1491633333333333  0.2794699999999994   F   F   F
  0.8972766666666668  0.1775833333333334  0.1878999999999998   F   F   F
  0.6721500000000005  0.3175099999999996  0.2805399999999998   F   F   F
  0.8680600000000003  0.1200299999999999  0.3748700000000001   F   F   F
  0.7786966666666671  0.1217500000000003  0.0953499999999999   F   F   F
  0.7022100000000001  0.1211533333333334  0.0942399999999999   F   F   F
  0.9494900000000003  0.0401600000000003  0.3711599999999992   F   F   F
  0.9486000000000002  0.2041500000000001  0.0942200000000000   F   F   F
  0.6709200000000002  0.1479333333333331  0.2780499999999996   F   F   F
  0.8960500000000001  0.0939933333333334  0.1882599999999996   F   F   F
  0.9777533333333336  0.0937066666666669  0.4646299999999995   F   F   F
  0.1183300000000001  0.3750000000000000  0.0901900000000000   F   F   F
  0.2294700000000001  0.3473300000000002  0.1879499999999999   F   F   F
  0.2299000000000000  0.5958733333333330  0.1880700000000000   F   F   F
  0.2003233333333334  0.3711533333333333  0.0949299999999998   F   F   F
  0.1450433333333333  0.4268299999999999  0.4674699999999990   F   F   F
  0.0870166666666670  0.4824966666666665  0.2794699999999994   F   F   F
  0.2306099999999999  0.5109166666666668  0.1878999999999998   F   F   F
  0.0054833333333335  0.6508433333333329  0.2805399999999997   F   F   F
  0.2013933333333334  0.4533633333333333  0.3748700000000000   F   F   F
  0.1120300000000004  0.4550833333333336  0.0953499999999999   F   F   F
  0.0355433333333334  0.4544866666666668  0.0942399999999999   F   F   F
  0.2828233333333334  0.3734933333333335  0.3711599999999991   F   F   F
  0.2819333333333334  0.5374833333333335  0.0942200000000000   F   F   F
  0.0042533333333333  0.4812666666666664  0.2780499999999996   F   F   F
  0.2293833333333332  0.4273266666666667  0.1882599999999996   F   F   F
  0.3110866666666667  0.4270400000000003  0.4646299999999993   F   F   F
  0.4516633333333335  0.3749999999999999  0.0901900000000000   F   F   F
  0.5628033333333333  0.3473300000000001  0.1879499999999999   F   F   F
  0.5632333333333336  0.5958733333333330  0.1880699999999999   F   F   F
  0.5336566666666669  0.3711533333333334  0.0949299999999998   F   F   F
  0.4783766666666667  0.4268299999999999  0.4674699999999990   F   F   F
  0.4203500000000005  0.4824966666666665  0.2794699999999994   F   F   F
  0.5639433333333335  0.5109166666666667  0.1878999999999998   F   F   F
  0.3388166666666669  0.6508433333333330  0.2805399999999998   F   F   F
  0.5347266666666669  0.4533633333333332  0.3748700000000001   F   F   F
  0.4453633333333338  0.4550833333333336  0.0953499999999999   F   F   F
  0.3688766666666667  0.4544866666666667  0.0942399999999999   F   F   F
  0.6161566666666669  0.3734933333333335  0.3711599999999992   F   F   F
  0.6152666666666669  0.5374833333333333  0.0942200000000000   F   F   F
  0.3375866666666666  0.4812666666666664  0.2780499999999996   F   F   F
  0.5627166666666668  0.4273266666666666  0.1882599999999996   F   F   F
  0.6444200000000002  0.4270400000000003  0.4646299999999996   F   F   F
  0.7849966666666669  0.3749999999999999  0.0901900000000000   F   F   F
  0.8961366666666667  0.3473300000000001  0.1879499999999999   F   F   F
  0.8965666666666670  0.5958733333333330  0.1880700000000000   F   F   F
  0.8669900000000003  0.3711533333333333  0.0949299999999998   F   F   F
  0.8117100000000002  0.4268300000000000  0.4674699999999990   F   F   F
  0.7536833333333338  0.4824966666666665  0.2794699999999994   F   F   F
  0.8972766666666668  0.5109166666666667  0.1878999999999998   F   F   F
  0.6721500000000005  0.6508433333333330  0.2805399999999998   F   F   F
  0.8680600000000003  0.4533633333333332  0.3748700000000000   F   F   F
  0.7786966666666671  0.4550833333333336  0.0953499999999999   F   F   F
  0.7022100000000001  0.4544866666666668  0.0942399999999999   F   F   F
  0.9494900000000003  0.3734933333333336  0.3711599999999990   F   F   F
  0.9486000000000002  0.5374833333333334  0.0942200000000000   F   F   F
  0.6709200000000002  0.4812666666666664  0.2780499999999996   F   F   F
  0.8960500000000001  0.4273266666666667  0.1882599999999996   F   F   F
  0.9777533333333336  0.4270400000000003  0.4646299999999995   F   F   F
  0.1183300000000001  0.7083333333333333  0.0901900000000000   F   F   F
  0.2294700000000001  0.6806633333333334  0.1879499999999999   F   F   F
  0.2299000000000000  0.9292066666666666  0.1880700000000000   F   F   F
  0.2003233333333334  0.7044866666666667  0.0949299999999998   F   F   F
  0.1450433333333333  0.7601633333333332  0.4674699999999990   F   F   F
  0.0870166666666670  0.8158299999999998  0.2794699999999994   F   F   F
  0.2306099999999999  0.8442500000000001  0.1878999999999998   F   F   F
  0.0054833333333335  0.9841766666666661  0.2805399999999997   F   F   F
  0.2013933333333334  0.7866966666666666  0.3748700000000000   F   F   F
  0.1120300000000004  0.7884166666666668  0.0953499999999999   F   F   F
  0.0355433333333334  0.7878199999999999  0.0942399999999999   F   F   F
  0.2828233333333334  0.7068266666666667  0.3711599999999992   F   F   F
  0.2819333333333334  0.8708166666666667  0.0942200000000000   F   F   F