Pt Pd Ni Co Fe                          
   1.00000000000000     
     9.0340449026756904   -5.1863640343239883   -0.0329596665155511
    -0.0452646728033608   10.3009042091468341    0.0215612643051300
    -0.0046364029181434    0.0106125467227488   22.9526079284771853
   Pt   Pd   Ni   Co   Fe
    16    18    15    16    15
Selective dynamics
Direct
  0.6806199343355317  0.5302723257162896  0.1883816176770097   F   F   F
  0.3601222453761539  0.6236003877160982  0.3773206705294471   F  F  F
  0.2726600435094321  0.4492086541296746  0.2817193967672394   F  F  F
  0.6750757374628833  0.0254751020940205  0.1878928883117581   F   F   F
  0.8532934953499195  0.1164482940687721  0.3778246773154659   F  F  F
  0.3504810141042185  0.3747235931686390  0.0935393689010269   F   F   F
  0.9332976374439990  0.5338485690420451  0.4705095096708616   F  F  F
  0.0075020545632681  0.9383663404990635  0.2867339938817250   F  F  F
  0.6804903041909945  0.2753895119681453  0.4757937211382871   F  F  F
  0.1877448474900123  0.5292919122315225  0.4738155130585815   F  F  F
  0.4329378938777921  0.2725514737834871  0.1902243965016481   F   F   F
  0.2578826176052835  0.6957543577846604  0.2834049981133227   F  F  F
  0.9268237915050008  0.2880295075199584  0.1868895375597930   F   F   F
  0.2648195998952269  0.9524991103366481  0.2839442228668489   F  F  F
  0.5217900946078232  0.9448483654223955  0.2846601629690338   F  F  F
  0.9332885872032222  0.7771919699890688  0.1855490795498014   F   F   F
  0.6042624993615249  0.6299511256533208  0.0924513503870656   F   F   F
  0.3470678733728030  0.3549050753535927  0.3780654231393328   F  F  F
  0.6171242781329704  0.3869857256172351  0.3757362957964112   F  F  F
  0.9279142657148327  0.0251537374257822  0.1881529277570593   F   F   F
  0.0113407225684864  0.1998341042359804  0.2843962725983054   F  F  F
  0.3444137400880081  0.1056367665869544  0.0931297417147690   F   F   F
  0.5997930267372884  0.1170169185973904  0.3788993198123191   F  F  F
  0.9366905473533623  0.8001697195056915  0.4727968217762599   F  F  F
  0.1829471117862909  0.2806375089581294  0.1881405339564779   F   F   F
  0.1841580015218156  0.5352770151247555  0.1829580426294228   F   F   F
  0.5967773821751550  0.1206567480825527  0.0924018130386841   F   F   F
  0.1950615642698738  0.7969391740117944  0.4758229611493662   F  F  F
  0.0956527914942455  0.1107747359561557  0.0909606411519803   F   F   F
  0.6741948737185612  0.5384715296252068  0.4754146246415733   F  F  F
  0.8485709268540376  0.1146029464416856  0.0915944659376748   F   F   F
  0.1886551497813187  0.7878242643368338  0.1833214456815213   F   F   F
  0.5242488378952886  0.2091862457046594  0.2848043239551871   F  F  F
  0.8522943747950862  0.8606797595796962  0.0921885751404403   F   F   F
  0.6870146536893164  0.0311034793882545  0.4705572345089462   F  F  F
  0.4346654969545725  0.0294486232409170  0.1883494070881611   F   F   F
  0.7754057183374986  0.4553347784470149  0.2793627667698304   F  F  F
  0.0948086920084728  0.1066124231371703  0.3795808416034006   F  F  F
  0.5887824126041821  0.8633520765041283  0.0926278789871304   F   F   F
  0.4318331097937262  0.5331364227682011  0.4694332013022464   F  F  F
  0.8558211644906493  0.3785124796379549  0.0947012834772707   F   F   F
  0.4367077633764183  0.5388817625733466  0.1883695477444789   F   F   F
  0.0937360481222527  0.6155981824162069  0.0905966227905353   F   F   F
  0.6823913667899030  0.7925943682820210  0.4660720650461488   F  F  F
  0.7595627939534391  0.6915370005758579  0.2843254734405493   F  F  F
  0.0950844700462028  0.8564516177308406  0.0902483820810502   F   F   F
  0.4360866189252377  0.7772331280507387  0.1843364520301662   F   F   F
  0.5229801855565755  0.4595933297758222  0.2822543888258539   F  F  F
  0.6092569251487561  0.3763379952731327  0.0944968984079395   F   F   F
  0.1821542019825628  0.0300925377264747  0.1884229679793492   F   F   F
  0.3366783463248009  0.1002127308703761  0.3811544375778375   F  F  F
  0.3504923401201978  0.8576135039179107  0.0932508635714342   F   F   F
  0.4479329133506145  0.7965931541276543  0.4661780573284232   F  F  F
  0.0934216352437539  0.3718537000838552  0.3774814293965899   F  F  F
  0.8528106344054152  0.6170046101537920  0.0915948145341616   F   F   F
  0.6764184802925541  0.7798104135262349  0.1897614786530184   F   F   F
  0.6834246916835198  0.2840263304720025  0.1888097534471811   F   F   F
  0.4388969192677992  0.0354518743941084  0.4680124937906211   F  F  F
  0.3484426449676050  0.6220919947719565  0.0934899109351406   F   F   F
  0.0999454090152150  0.8681143485487174  0.3776362527338468   F  F  F
  0.1005766047530017  0.3789363234111249  0.0872253798188751   F   F   F
  0.4239102268741547  0.2668698813012713  0.4677709974445231   F  F  F
  0.8416113749213500  0.8567578132594479  0.3766987600856060   F  F  F
  0.7685232647695903  0.2095972080087425  0.2796702736647517   F  F  F
  0.0080279355029949  0.4505005234930460  0.2817898417655227   F  F  F
  0.6073436175186594  0.8683860830963875  0.3788588564708704   F  F  F
  0.8649300687104285  0.6305936842449754  0.3754159489177849   F  F  F
  0.2652851848896843  0.1974545021464504  0.2841232648677151   F  F  F
  0.9326874370061408  0.0376958165026706  0.4692181612713909   F  F  F
  0.0995799124679598  0.6171596056438825  0.3795633749979601   F  F  F
  0.1823528063475338  0.2792925628345631  0.4687837588654560   F  F  F
  0.9275657826829473  0.5289252067682852  0.1850017655195444   F   F   F
  0.3428947974976387  0.8679568381770780  0.3797416600149858   F  F  F
  0.0060404412508056  0.6858198196601997  0.2846840941906109   F  F  F
  0.9349215806425059  0.2842786944169275  0.4693940125580911   F  F  F
  0.7620976943766532  0.9373380173613141  0.2821916793064653   F  F  F
  0.1914297705977356  0.0436709695738321  0.4672013868880528   F  F  F
  0.6095962961519825  0.6297763178280147  0.3757813468258763   F  F  F
  0.8657620057463279  0.3782000629631901  0.3690456773407871   F  F  F
  0.5224628492016768  0.6955819366526922  0.2774230038537794   F  F  F
 
  0.00000000E+00  0.00000000E+00  0.00000000E+00
  0.00000000E+00  0.00000000E+00  0.00000000E+00
  0.00000000E+00  0.00000000E+00  0.00000000E+00
  0.00000000E+00  0.00000000E+00  0.00000000E+00
  0.00000000E+00  0.00000000E+00  0.00000000E+00
  0.00000000E+00  0.00000000E+00  0.00000000E+00
  0.00000000E+00  0.00000000E+00  0.00000000E+00
  0.00000000E+00  0.00000000E+00  0.00000000E+00
  0.00000000E+00  0.00000000E+00  0.00000000E+00
  0.00000000E+00  0.00000000E+00  0.00000000E+00
  0.00000000E+00  0.00000000E+00  0.00000000E+00
  0.00000000E+00  0.00000000E+00  0.00000000E+00
  0.00000000E+00  0.00000000E+00  0.00000000E+00
  0.00000000E+00  0.00000000E+00  0.00000000E+00
  0.00000000E+00  0.00000000E+00  0.00000000E+00
  0.00000000E+00  0.00000000E+00  0.00000000E+00
  0.00000000E+00  0.00000000E+00  0.00000000E+00
  0.00000000E+00  0.00000000E+00  0.00000000E+00
  0.00000000E+00  0.00000000E+00  0.00000000E+00
  0.00000000E+00  0.00000000E+00  0.00000000E+00
  0.00000000E+00  0.00000000E+00  0.00000000E+00
  0.00000000E+00  0.00000000E+00  0.00000000E+00
  0.00000000E+00  0.00000000E+00  0.00000000E+00
  0.00000000E+00  0.00000000E+00  0.00000000E+00
  0.00000000E+00  0.00000000E+00  0.00000000E+00
  0.00000000E+00  0.00000000E+00  0.00000000E+00
  0.00000000E+00  0.00000000E+00  0.00000000E+00
  0.00000000E+00  0.00000000E+00  0.00000000E+00
  0.00000000E+00  0.00000000E+00  0.00000000E+00
  0.00000000E+00  0.00000000E+00  0.00000000E+00
  0.00000000E+00  0.00000000E+00  0.00000000E+00
  0.00000000E+00  0.00000000E+00  0.00000000E+00
  0.00000000E+00  0.00000000E+00  0.00000000E+00
  0.00000000E+00  0.00000000E+00  0.00000000E+00
  0.00000000E+00  0.00000000E+00  0.00000000E+00
  0.00000000E+00  0.00000000E+00  0.00000000E+00
  0.00000000E+00  0.00000000E+00  0.00000000E+00
  0.00000000E+00  0.00000000E+00  0.00000000E+00
  0.00000000E+00  0.00000000E+00  0.00000000E+00
  0.00000000E+00  0.00000000E+00  0.00000000E+00
  0.00000000E+00  0.00000000E+00  0.00000000E+00
  0.00000000E+00  0.00000000E+00  0.00000000E+00
  0.00000000E+00  0.00000000E+00  0.00000000E+00
  0.00000000E+00  0.00000000E+00  0.00000000E+00
  0.00000000E+00  0.00000000E+00  0.00000000E+00
  0.00000000E+00  0.00000000E+00  0.00000000E+00
  0.00000000E+00  0.00000000E+00  0.00000000E+00
  0.00000000E+00  0.00000000E+00  0.00000000E+00
  0.00000000E+00  0.00000000E+00  0.00000000E+00
  0.00000000E+00  0.00000000E+00  0.00000000E+00
  0.00000000E+00  0.00000000E+00  0.00000000E+00
  0.00000000E+00  0.00000000E+00  0.00000000E+00
  0.00000000E+00  0.00000000E+00  0.00000000E+00
  0.00000000E+00  0.00000000E+00  0.00000000E+00
  0.00000000E+00  0.00000000E+00  0.00000000E+00
  0.00000000E+00  0.00000000E+00  0.00000000E+00
  0.00000000E+00  0.00000000E+00  0.00000000E+00
  0.00000000E+00  0.00000000E+00  0.00000000E+00
  0.00000000E+00  0.00000000E+00  0.00000000E+00
  0.00000000E+00  0.00000000E+00  0.00000000E+00
  0.00000000E+00  0.00000000E+00  0.00000000E+00
  0.00000000E+00  0.00000000E+00  0.00000000E+00
  0.00000000E+00  0.00000000E+00  0.00000000E+00
  0.00000000E+00  0.00000000E+00  0.00000000E+00
  0.00000000E+00  0.00000000E+00  0.00000000E+00
  0.00000000E+00  0.00000000E+00  0.00000000E+00
  0.00000000E+00  0.00000000E+00  0.00000000E+00
  0.00000000E+00  0.00000000E+00  0.00000000E+00
  0.00000000E+00  0.00000000E+00  0.00000000E+00
  0.00000000E+00  0.00000000E+00  0.00000000E+00
  0.00000000E+00  0.00000000E+00  0.00000000E+00
  0.00000000E+00  0.00000000E+00  0.00000000E+00
  0.00000000E+00  0.00000000E+00  0.00000000E+00
  0.00000000E+00  0.00000000E+00  0.00000000E+00
  0.00000000E+00  0.00000000E+00  0.00000000E+00
  0.00000000E+00  0.00000000E+00  0.00000000E+00
  0.00000000E+00  0.00000000E+00  0.00000000E+00
  0.00000000E+00  0.00000000E+00  0.00000000E+00
  0.00000000E+00  0.00000000E+00  0.00000000E+00
  0.00000000E+00  0.00000000E+00  0.00000000E+00
