Ru Rh Pd Ir Pt  O 
 1.0000000000000000
     9.0042196513834405   -5.1816049704556733   -0.0032803803665809
    -0.0273906419229299   10.3222154506969215   -0.0072348151389254
     0.0169439754674682   -0.0247731476155639   22.9374823001325652
 Ru  Rh  Pd  Ir  Pt  O  
  16  16  14  18  16   1
Selective dynamics
Cartesian
  7.5641603497970884 -3.0701823741518357  2.1236747191444687   F   F   F
  3.9654997684486886 -2.0386010200752338 10.7778585195655179   T   T   T
  3.8945343524013674  3.2213817972252965 10.7685901724754896   T   T   T
  7.6632527738822374  2.0604418075868400  2.1469156006172536   F   F   F
  8.3547230447249419  3.0946261012819467 10.8747395369081250   T   T   T
  3.2126058879875812 -0.6713369353479531  8.6043253456080802   T   T   T
  8.4077906973332137 -4.4642749386176561  4.2410880905054968   F   F   F
  6.2934858105285425 -0.6552277209468977 10.7129695818390722   T   T   T
  1.6389787955315798 -0.7020724190922281  4.2041871771786283   F   F   F
  7.6005601031433381  4.5180080783398839  8.5889836526854086   T   T   T
  6.1404410668453213  4.5822096587342900 10.8740570519255133   T   T   T
  0.1351616832508711  2.1196739779182576  6.4517067784477504   T   T   T
  5.3364183810966859  5.9328888524636092  8.6631272403041635   T   T   T
  6.0993964474643674  4.4602071465460016  4.2552747607889003   F   F   F
  6.1940986641977736 -0.7645545502166745  4.1977800536915684   F   F   F
  4.7003480117239951 -0.6154133643876031  6.4363997266624065   T   T   T
  6.8580428941925664  5.8405859610117536  6.4384758366923869   T   T   T
  8.5220558232341190  0.6608290648768792  4.2646863326388260   F   F   F
  7.5928552283256519  1.8387102774956365  8.6047246159239936   T   T   T
  0.8732695375871664  8.3330461518639840  8.5932301458634353   T   T   T
  0.9024130364618913  0.7732793217482118  8.6533346950780299   T   T   T
  3.0960578017031075  4.5052949561640236  8.5001636020180218   T   T   T
  3.8156983015572536  3.2686985809994047  4.3081913873295798   F   F   F
  3.1044030359763917  4.5604637940198938  2.1101102919914081   F   F   F
  6.9642438427096209  0.6883078811756532  6.4028831512356135   T   T   T
  2.3091901132836052  8.3174208376793040  6.3911860674642940   T   T   T
  4.5751504434798367  7.0599163016770623  6.3874126927124557   T   T   T
  2.4044727490828177  0.7426617316154841  6.4203913750324997   T   T   T
  1.6377767997985309 -0.6366264262636283 10.8379466297562423   T   T   T
  3.9280023721463579  0.6629845216815103  4.1826369357283149   F   F   F
  3.9444273429198788  0.6420356213809663 10.8121713076620285   T   T   T
  1.6084185644798887  4.5559654257752555 10.7414438911994701   T   T   T
  0.9509913654173288  8.3543003742400046  2.1428795014738218   F   F   F
  4.6957746210259517  2.0379507709592968  6.4616196826230334   T   T   T
  8.4096994805954477 -4.4763440152025318 10.7834828254208865   T   T   T
  1.6219150383637968  2.0115561953607894  4.2215620386218040   F   F   F
  1.6568851919043868  7.0764281729191696 10.8268217743870210   T   T   T
  2.3466077003792654  5.7649309579982928  6.3344440419512944   T   T   T
  0.9040839616217512  5.7876464862183541  8.5191557031795000   T   T   T
  0.8929934907390291  5.8345392793345727  2.1361994824161532   F   F   F
  3.8564303215219708  5.7982149374757102 10.7929068717452079   T   T   T
  3.1257836548081195  7.1378706567351662  2.1734326525452801   F   F   F
  3.1499150502587439 -0.6934951897985159  2.1118653639458134   F   F   F
  5.3650780292273064  0.6917580939424701  8.5830351169039272   T   T   T
  6.1556145967531437  1.9227635484519967  4.2576670560853849   F   F   F
  3.1925770171671539  1.9770884192528242  8.5727764713771410   T   T   T
  1.6086957836005025  1.9950345412001813 10.7799132696053785   T   T   T
  5.4029441488561698  3.2391080958006202  2.1022401189611784   F   F   F
  5.5358269470505750 -1.8469827239754795  8.5544219842645770   T   T   T
  1.6290733628439700  4.4859994292113710  4.3642621783231377   F   F   F
  6.8976826835289939  3.2441477280434374  6.3826222168452640   T   T   T
  8.3952302057287334  3.2174508426651318  4.3636504445184681   F   F   F
  7.6469680408847402 -3.1049727143679262  8.6637204749569197   T   T   T
  5.3850045122676331  5.7845001739777144  2.1435633329278749   F   F   F
  0.2600773181692221  4.6370389346891496  6.4734786114800320   T   T   T
  0.0386856995260291  9.6282160836959516  6.3947458657676863   T   T   T
  0.9586843402432577  0.6893293017903223  2.1862420284940098   F   F   F
  3.8329581494564593  5.9022728918035883  4.2432793420364661   F   F   F
  7.5542268994632487  4.6197766629561032  2.1265468319362246   F   F   F
  4.6308306180835661  4.4711535320811757  6.4589639454167047   T   T   T
  2.3864189321840064  3.3208737731523570  6.4061541109250495   T   T   T
  3.0726888476853995  7.0554501506938454  8.6576488857210840   T   T   T
  3.9169232219479664 -1.9863859788141722  4.1883119292738815   F   F   F
  5.3743444072654931  0.6682371822256824  2.0737589229700517   F   F   F
  0.8988726384251685  3.2503530097710902  2.2182173952524833   F   F   F
  7.6286051276594273 -0.5267204123685769  2.0854810901895315   F   F   F
  6.2824836767183410 -3.2077265466540172 10.8323747512990618   T   T   T
  5.3623045894043582  3.2060964659909907  8.4748985182178060   T   T   T
  0.1344763535406797  7.1277175968711655  6.4195009989575098   T   T   T
  6.9233331995718359 -1.8894719517373844  6.4863988664614514   T   T   T
  8.4896852221304808  0.5967091043624244 10.6611197184899691   T   T   T
  1.7359127119777562  7.0318220152348152  4.1952322844236081   F   F   F
  8.5051915860171796 -1.8808533656417419  4.2927356441340860   F   F   F
  8.4333471757895921 -2.0835512376444854 10.7123299366400744   T   T   T
  0.8895552778451253  3.3028921289485211  8.5958534063054035   T   T   T
  3.1501230236743867  1.9205454002879421  2.1339085033274499   F   F   F
  6.1124167443728386  1.9423192220414438 10.7554896872413117   T   T   T
  7.6710139903544556 -0.7328797333158164  8.5346216558512928   T   T   T
  5.2545312676588303 -1.8942082130599249  2.0897815508362956   F   F   F
  6.0330993255444838 -3.2962338874148243  4.2114863764666701   F   F   F
  5.1294927894886149 -1.3469143705110660 12.5747395369081243   T   T   T
