Pt   Pd   Ni   Co   Fe                  
   1.00000000000000     
     8.9737356605689964   -5.1895483053450278    0.0044626470623087
    -0.0247690241830199   10.3424999429413642   -0.0160880757869821
     0.0218048100903919   -0.0357648146236715   22.9062786526084246
   Pt   Pd   Ni   Co   Fe
    14    18    16    14    18
Selective dynamics
Direct
  0.5180023094678440  0.9446583852134606  0.2849328628432480   T   T   T
  0.4292949822609344  0.5217518175688980  0.1824179212661718   F   F   F
  0.2672563202962640  0.9564397751477320  0.2819832030583402   T   T   T
  0.1863129787139258  0.2847300904368502  0.4722713089057718   T   T   T
  0.6844327508367412  0.5410646528852022  0.4719898245798468   T   T   T
  0.7632290833686858  0.4465993135950242  0.2847514887341049   T   T   T
  0.9358805418504303  0.5300930094764951  0.1875362677416703   F   F   F
  0.8477485261870328  0.6213791928331105  0.0934302887854628   F   F   F
  0.4313726593800705  0.2751821966396029  0.4730224821870953   T   T   T
  0.9342655749458399  0.2864978007393945  0.4718535859278734   T   T   T
  0.8526582983940970  0.1165577362854339  0.3715147741133859   T   T   T
  0.1959821503047026  0.5523295751434822  0.4763544080735242   T   T   T
  0.0123103023868141  0.9614426244118263  0.2818343749181181   T   T   T
  0.3526024164930183  0.3587483691257749  0.3693112186351694   T   T   T
  0.3463008325782013  0.8708640563724472  0.0895310143389878   F   F   F
  0.5968678033910518  0.1168648640153344  0.3809925128941999   T   T   T
  0.5903752345879951  0.3559827568317004  0.0942694754959490   F   F   F
  0.0223740130683791  0.4428808049300840  0.2832082293627134   T   T   T
  0.8507339497305537  0.3551759273654724  0.0927668777701669   F   F   F
  0.0177166406667417  0.7013287144629089  0.2839882457594357   T   T   T
  0.3562693191991202  0.6208717522109077  0.3731899764126478   T   T   T
  0.7576340281894606  0.7013344791337187  0.2850239891948546   T   T   T
  0.5130621509384203  0.2054729896335589  0.2823970357461202   T   T   T
  0.6963773227465424  0.7856051830257087  0.1852835825916159   F   F   F
  0.6088455828252322  0.8742555835417463  0.0916677582874286   F   F   F
  0.9263735660806416  0.0160241221715751  0.4745953485117563   T   T   T
  0.4340622626395998  0.7879221572205495  0.1854615732828933   F   F   F
  0.0980075653948312  0.6146391748895812  0.3790005179629951   T   T   T
  0.6817483061294392  0.2793938067389806  0.4792136069350202   T   T   T
  0.6928175412583144  0.0463584099463361  0.1845642850824163   F   F   F
  0.0969132248910331  0.8722264054648872  0.3802841585545474   T   T   T
  0.1809639005607409  0.7935142130999182  0.1836874205241941   F   F   F
  0.6835312804492517  0.5303748431872322  0.1864497962119884   F   F   F
  0.5107006147605768  0.6949878981604888  0.2806790310922029   T   T   T
  0.1853840922656745  0.0292383153420957  0.4707934981253304   T   T   T
  0.0944041010511043  0.1133647860951825  0.0930140268663848   F   F   F
  0.1051642437635465  0.6089293609174504  0.0915509340549505   F   F   F
  0.9379574395321342  0.7882706821510297  0.1875284906316139   F   F   F
  0.3436142591447862  0.1141608760028916  0.0959835206730943   F   F   F
  0.8419667557294875  0.6126473576349889  0.3791777398790233   T   T   T
  0.7721505105049243  0.1996705995031733  0.2783328767477077   T   T   T
  0.1021045375048835  0.3610004840447496  0.3736295920460370   T   T   T
  0.9416375929155194  0.0370839813190216  0.1848459826094313   F   F   F
  0.1000083147343744  0.8785651156795780  0.0910116977466728   F   F   F
  0.5121521111744122  0.4536141113739970  0.2780773834127785   T   T   T
  0.6737137966967069  0.7793706848847466  0.4661654668026324   T   T   T
  0.5999193514565168  0.6144724972327993  0.3761684264367411   T   T   T
  0.3456066370828381  0.6121717258390476  0.0933232019900174   F   F   F
  0.6774821342338271  0.2833179489981106  0.1879652662415481   F   F   F
  0.9400375178480774  0.7760871540213078  0.4691216344649924   T   T   T
  0.1775644177831808  0.2746222916956640  0.1833814372358162   F   F   F
  0.9493791791337856  0.2862272221402407  0.1871691123275454   F   F   F
  0.3507793224438755  0.8712370653427666  0.3808053751149357   T   T   T
  0.8415532577958906  0.8598590623470974  0.3788025852705754   T   T   T
  0.5939476948219919  0.6102636922664360  0.0916278940359163   F   F   F
  0.4456049327627553  0.7939007356590286  0.4664461907917415   T   T   T
  0.4366724627455127  0.0469647526329950  0.1873486609158945   F   F   F
  0.6746521745508636  0.0158393821683872  0.4686762247488249   T   T   T
  0.8466263249531005  0.3695058317210589  0.3795526234991451   T   T   T
  0.4407413916323358  0.5470616966753838  0.4683332916202571   T   T   T
  0.1904076196739639  0.7919946758728406  0.4684926100338767   T   T   T
  0.3434758731389067  0.3580626580978716  0.0960258251999733   F   F   F
  0.3463494042909808  0.1092309314508141  0.3794892440864125   T   T   T
  0.7649646147898195  0.9528664524346095  0.2809053489368873   T   T   T
  0.2616268904593169  0.2112122617058990  0.2743846258123417   T   T   T
  0.1779059491136721  0.0402568901060079  0.1838111453172075   F   F   F
  0.2702733478444589  0.6959539850018386  0.2793256681554826   T   T   T
  0.8604310071707033  0.8685565715060122  0.0927213381970446   F   F   F
  0.4218889070045340  0.0163323095923407  0.4714111454723655   T   T   T
  0.2692753484294123  0.4464034714729354  0.2798263756088138   T   T   T
  0.4302203387443839  0.2729450204529584  0.1868751030521807   F   F   F
  0.9354520127401030  0.5416813070146053  0.4714734845583114   T   T   T
  0.1050679902078002  0.3640833771720153  0.0961442201714391   F   F   F
  0.5951690539419729  0.1148435652918920  0.0912827104052667   F   F   F
  0.8673315605203484  0.1203978204316414  0.0931965930992220   F   F   F
  0.1785236364113842  0.5257484293478925  0.1846019007839743   F   F   F
  0.0959657549556472  0.1184781731090570  0.3783362360899801   T   T   T
  0.6099481223437084  0.3754125171836925  0.3787711289436830   T   T   T
  0.6056175970265473  0.8619767691474380  0.3781206781360651   T   T   T
  0.0146424753067340  0.2029362597112311  0.2769822309574348   T   T   T
 
  0.00000000E+00  0.00000000E+00  0.00000000E+00
  0.00000000E+00  0.00000000E+00  0.00000000E+00
  0.00000000E+00  0.00000000E+00  0.00000000E+00
  0.00000000E+00  0.00000000E+00  0.00000000E+00
  0.00000000E+00  0.00000000E+00  0.00000000E+00
  0.00000000E+00  0.00000000E+00  0.00000000E+00
  0.00000000E+00  0.00000000E+00  0.00000000E+00
  0.00000000E+00  0.00000000E+00  0.00000000E+00
  0.00000000E+00  0.00000000E+00  0.00000000E+00
  0.00000000E+00  0.00000000E+00  0.00000000E+00
  0.00000000E+00  0.00000000E+00  0.00000000E+00
  0.00000000E+00  0.00000000E+00  0.00000000E+00
  0.00000000E+00  0.00000000E+00  0.00000000E+00
  0.00000000E+00  0.00000000E+00  0.00000000E+00
  0.00000000E+00  0.00000000E+00  0.00000000E+00
  0.00000000E+00  0.00000000E+00  0.00000000E+00
  0.00000000E+00  0.00000000E+00  0.00000000E+00
  0.00000000E+00  0.00000000E+00  0.00000000E+00
  0.00000000E+00  0.00000000E+00  0.00000000E+00
  0.00000000E+00  0.00000000E+00  0.00000000E+00
  0.00000000E+00  0.00000000E+00  0.00000000E+00
  0.00000000E+00  0.00000000E+00  0.00000000E+00
  0.00000000E+00  0.00000000E+00  0.00000000E+00
  0.00000000E+00  0.00000000E+00  0.00000000E+00
  0.00000000E+00  0.00000000E+00  0.00000000E+00
  0.00000000E+00  0.00000000E+00  0.00000000E+00
  0.00000000E+00  0.00000000E+00  0.00000000E+00
  0.00000000E+00  0.00000000E+00  0.00000000E+00
  0.00000000E+00  0.00000000E+00  0.00000000E+00
  0.00000000E+00  0.00000000E+00  0.00000000E+00
  0.00000000E+00  0.00000000E+00  0.00000000E+00
  0.00000000E+00  0.00000000E+00  0.00000000E+00
  0.00000000E+00  0.00000000E+00  0.00000000E+00
  0.00000000E+00  0.00000000E+00  0.00000000E+00
  0.00000000E+00  0.00000000E+00  0.00000000E+00
  0.00000000E+00  0.00000000E+00  0.00000000E+00
  0.00000000E+00  0.00000000E+00  0.00000000E+00
  0.00000000E+00  0.00000000E+00  0.00000000E+00
  0.00000000E+00  0.00000000E+00  0.00000000E+00
  0.00000000E+00  0.00000000E+00  0.00000000E+00
  0.00000000E+00  0.00000000E+00  0.00000000E+00
  0.00000000E+00  0.00000000E+00  0.00000000E+00
  0.00000000E+00  0.00000000E+00  0.00000000E+00
  0.00000000E+00  0.00000000E+00  0.00000000E+00
  0.00000000E+00  0.00000000E+00  0.00000000E+00
  0.00000000E+00  0.00000000E+00  0.00000000E+00
  0.00000000E+00  0.00000000E+00  0.00000000E+00
  0.00000000E+00  0.00000000E+00  0.00000000E+00
  0.00000000E+00  0.00000000E+00  0.00000000E+00
  0.00000000E+00  0.00000000E+00  0.00000000E+00
  0.00000000E+00  0.00000000E+00  0.00000000E+00
  0.00000000E+00  0.00000000E+00  0.00000000E+00
  0.00000000E+00  0.00000000E+00  0.00000000E+00
  0.00000000E+00  0.00000000E+00  0.00000000E+00
  0.00000000E+00  0.00000000E+00  0.00000000E+00
  0.00000000E+00  0.00000000E+00  0.00000000E+00
  0.00000000E+00  0.00000000E+00  0.00000000E+00
  0.00000000E+00  0.00000000E+00  0.00000000E+00
  0.00000000E+00  0.00000000E+00  0.00000000E+00
  0.00000000E+00  0.00000000E+00  0.00000000E+00
  0.00000000E+00  0.00000000E+00  0.00000000E+00
  0.00000000E+00  0.00000000E+00  0.00000000E+00
  0.00000000E+00  0.00000000E+00  0.00000000E+00
  0.00000000E+00  0.00000000E+00  0.00000000E+00
  0.00000000E+00  0.00000000E+00  0.00000000E+00
  0.00000000E+00  0.00000000E+00  0.00000000E+00
  0.00000000E+00  0.00000000E+00  0.00000000E+00
  0.00000000E+00  0.00000000E+00  0.00000000E+00
  0.00000000E+00  0.00000000E+00  0.00000000E+00
  0.00000000E+00  0.00000000E+00  0.00000000E+00
  0.00000000E+00  0.00000000E+00  0.00000000E+00
  0.00000000E+00  0.00000000E+00  0.00000000E+00
  0.00000000E+00  0.00000000E+00  0.00000000E+00
  0.00000000E+00  0.00000000E+00  0.00000000E+00
  0.00000000E+00  0.00000000E+00  0.00000000E+00
  0.00000000E+00  0.00000000E+00  0.00000000E+00
  0.00000000E+00  0.00000000E+00  0.00000000E+00
  0.00000000E+00  0.00000000E+00  0.00000000E+00
  0.00000000E+00  0.00000000E+00  0.00000000E+00
  0.00000000E+00  0.00000000E+00  0.00000000E+00
