Pt   Pd   Ni   Co   Fe   
1.0
8.9737356605689964 -5.1895483053450278 0.0044626470623087
-0.0247690241830199 10.3424999429413642 -0.0160880757869821
0.0218048100903919 -0.0357648146236715 22.9062786526084246
Pt   Pd   Ni   Co   Fe   
14   18   16   14   18   
Selective dynamics
Direct
0.5193667195934489 0.9518702827426392 0.2833322466681577    T   T   T
0.4292949822609335 0.5217518175689002 0.1824179212661716    F   F   F
0.27170518802191557 0.9630100032003666 0.2798705613594961    T   T   T
0.18673578226164764 0.2783828025622619 0.4712585314957905    T   T   T
0.6868169177777406 0.5310198448883295 0.4727242569289435    T   T   T
0.7718634844942556 0.45325327617322975 0.2815220338855782    T   T   T
0.9358805418504306 0.530093009476495 0.18753626774166854    F   F   F
0.8477485261870339 0.621379192833107 0.09343028878546417    F   F   F
0.4324044584759572 0.2750713719308992 0.4692111658305932    T   T   T
0.9281001201018335 0.2806389321874999 0.47343997886469646    T   T   T
0.8354931936636827 0.10743300387088942 0.3774969780558199    T   T   T
0.17953281537490307 0.5331914388431688 0.4741571764674701    T   T   T
0.014515782874609242 0.9493016220035162 0.2763778004008971    T   T   T
0.35244900622331654 0.36176011821844595 0.3773070275243231    T   T   T
0.34630083257819805 0.8708640563724453 0.08953101433898739    F   F   F
0.5902871909290324 0.10599562429425934 0.3772733641561075    T   T   T
0.5903752345879938 0.3559827568316972 0.09426947549594683    F   F   F
0.01717074392281274 0.4428753395307598 0.27838564472617777    T   T   T
0.8507339497305514 0.3551759273654739 0.09276687777016498    F   F   F
0.013975930781511398 0.7039798895097823 0.27905882271481863    T   T   T
0.3520039443794375 0.6184253200065514 0.3760837097548507    T   T   T
0.7803341357743805 0.7120475219827831 0.27894999223681016    T   T   T
0.5174183516349314 0.19314539946926454 0.2804360993782012    T   T   T
0.6963773227465441 0.7856051830257057 0.18528358259161562    F   F   F
0.6088455828252313 0.8742555835417437 0.09166775828742706    F   F   F
0.9299653967500161 0.022697330314001608 0.4688439752094066    T   T   T
0.4340622626395974 0.787922157220549 0.185461573282894    F   F   F
0.09292193871666497 0.611448367357407 0.3744965999829358    T   T   T
0.6820592199570077 0.2778446830163386 0.4715740845482188    T   T   T
0.6928175412583157 0.04635840994633863 0.18456428508241787    F   F   F
0.10121706990076951 0.8709027174147691 0.3755741688446105    T   T   T
0.18096390056073794 0.7935142130999188 0.18368742052419573    F   F   F
0.6835312804492514 0.530374843187233 0.18644979621199148    F   F   F
0.5292058194718322 0.7087330245686027 0.28095370703856665    T   T   T
0.18936361857197562 0.031487555792169844 0.4723224586977647    T   T   T
0.0944041010511057 0.11336478609518207 0.09301402686638542    F   F   F
0.1051642437635479 0.6089293609174495 0.09155093405495197    F   F   F
0.9379574395321337 0.7882706821510319 0.18752849063161323    F   F   F
0.34361425914478566 0.11416087600289365 0.09598352067309743    F   F   F
0.8471051741375539 0.6181188206752226 0.37861902278537835    T   T   T
0.7659733281571152 0.19612721120436044 0.28083866297487053    T   T   T
0.09321456360647057 0.3596105282146686 0.3751539683360538    T   T   T
0.9416375929155179 0.03708398131901967 0.1848459826094344    F   F   F
0.10000831473437537 0.878565115679575 0.09101169774667406    F   F   F
0.5134029262975366 0.43809306100579987 0.28032222584116884    T   T   T
0.6861190813374533 0.7750266526923367 0.46897308231793433    T   T   T
0.60019948989073 0.6180028502171124 0.37786403758838677    T   T   T
0.3456066370828385 0.6121717258390446 0.09332320199001755    F   F   F
0.6774821342338261 0.28331794899811263 0.18796526624154664    F   F   F
0.9291499952935761 0.778044965506106 0.47007349264004816    T   T   T
0.1775644177831841 0.27462229169566593 0.18338143723581976    F   F   F
0.9493791791337851 0.2862272221402376 0.1871691123275482    F   F   F
0.3601277471009871 0.8735023337068949 0.37405507078306005    T   T   T
0.8421058428443514 0.8649878787177524 0.3696429227010319    T   T   T
0.5939476948219891 0.6102636922664363 0.09162789403591821    F   F   F
0.448816655323005 0.7981552890956598 0.4686952965214669    T   T   T
0.4366724627455099 0.04696475263299375 0.18734866091589356    F   F   F
0.6844734511114084 0.04981840964257542 0.4724996349722721    T   T   T
0.8451897338829134 0.3592353637111468 0.37704675599966836    T   T   T
0.43899061601409545 0.5267812563527268 0.4684415617312678    T   T   T
0.18837215714066471 0.7904446438372109 0.4710675749686771    T   T   T
0.34347587313890776 0.35806265809787075 0.09602582519996973    F   F   F
0.35214923338532295 0.11235889313846452 0.377978621658369    T   T   T
0.7788514772577287 0.9512841739418597 0.2811006327330288    T   T   T
0.2595494519634937 0.19570217630862347 0.2768058953449309    T   T   T
0.17790594911367255 0.04025689010601098 0.18381114531720985    F   F   F
0.26320810657116994 0.7017165608979605 0.2790135055377545    T   T   T
0.8604310071707041 0.868556571506011 0.0927213381970474    F   F   F
0.43755961123343284 0.04274236974631968 0.47001800159102164    T   T   T
0.2580643893601579 0.4378178589832085 0.2781505984295199    T   T   T
0.43022033874438115 0.2729450204529553 0.18687510305218083    F   F   F
0.9162397317591612 0.5110501260717772 0.4724083545751022    T   T   T
0.10506799020779861 0.3640833771720135 0.09614422017143608    F   F   F
0.5951690539419704 0.11484356529189334 0.09128271040526686    F   F   F
0.8673315605203452 0.12039782043164418 0.09319659309922376    F   F   F
0.17852363641138116 0.5257484293478891 0.18460190078397257    F   F   F
0.1015528695037655 0.11480766015773886 0.37114035435531906    T   T   T
0.5949992362182525 0.3532432828709435 0.37949071114989225    T   T   T
0.5991161135908041 0.8690410029749868 0.3744087977478015    T   T   T
0.013259480151244046 0.18917757016650433 0.27548163939358716    T   T   T
