Pt   Pd   Ni   Co   Fe                  
   1.00000000000000     
     8.9788379997950187   -5.2082127746503204   -0.0213961858254820
    -0.0412479304400065   10.3512200080472159    0.0130202833518723
     0.0054108898975044    0.0005434299803908   22.9185651302353932
   Pt   Pd   Ni   Co   Fe
    14    17    16    18    15
Selective dynamics
Direct
  0.8634935783423421  0.8728477206179615  0.3737402292086562   T   T   T
  0.4309465817769791  0.5421325293221049  0.4745916834821409   T   T   T
  0.3416746816935965  0.6127548768343908  0.3722451816369101   T   T   T
  0.3556675252310392  0.8718623634186857  0.3765425075235438   T   T   T
  0.0059262536695437  0.6903649605031195  0.2822673474419375   T   T   T
  0.7658188482551227  0.2052361465972541  0.2790692797012931   T   T   T
  0.8504927111814169  0.8735881888604027  0.0943359574738523   F   F   F
  0.2618535036761012  0.9478016035027066  0.2846029322905152   T   T   T
  0.3616574875649121  0.8706931395977335  0.0938358181221091   F   F   F
  0.5242621998750570  0.4562051847333569  0.2782200751601411   T   T   T
  0.8445639830221054  0.6174209548017302  0.0954955923055394   F   F   F
  0.1047601849281108  0.6147901478607309  0.0970147283602287   F   F   F
  0.4366500345944573  0.5426820667006709  0.1841852069798549   F   F   F
  0.9547905809708246  0.5473522218817989  0.4735820707105829   T   T   T
  0.6875810475221753  0.2824915683776717  0.4719277227158610   T   T   T
  0.0157999044542470  0.2009019207896005  0.2815795283411333   T   T   T
  0.8489454636329635  0.1202239211710685  0.3777310630597481   T   T   T
  0.3520721131719498  0.3652649633331961  0.0946498476278563   F   F   F
  0.8497298707245338  0.6076254553571238  0.3776005433781333   T   T   T
  0.6887671373643585  0.5421629481376501  0.4781489936423644   T   T   T
  0.5169363768435734  0.1978911129684944  0.2814820219425668   T   T   T
  0.1800411124807511  0.2791426940278896  0.1869236505455021   F   F   F
  0.7573124850986821  0.9409819984876471  0.2770619969364925   T   T   T
  0.6027385695038160  0.6202579765474781  0.3740720222345116   T   T   T
  0.8455447157981695  0.3566397817428566  0.0970053984685322   F   F   F
  0.2620785518924316  0.1978264772337875  0.2825354091755342   T   T   T
  0.6865569957627727  0.0279536047186579  0.4745890807051159   T   T   T
  0.3548117233869519  0.1177167056793778  0.0940358704859818   F   F   F
  0.4202211280439506  0.2693322393897255  0.4785292969233672   T   T   T
  0.1848662848246860  0.7860214517809041  0.1924281633802138   F   F   F
  0.3486723981128311  0.3585654667088641  0.3783263920266123   T   T   T
  0.6008861113145230  0.3663424793702177  0.0979160997263975   F   F   F
  0.1864456332922014  0.5368111812383627  0.4670746976795390   T   T   T
  0.6057457996700961  0.1143999851822954  0.0931997800819033   F   F   F
  0.4391163013344013  0.7883388189021687  0.1849198223725779   F   F   F
  0.2638622400155965  0.4575281409918862  0.2794871063725659   T   T   T
  0.5999294907436843  0.8706632057799357  0.3746005452905461   T   T   T
  0.1061065557349721  0.1142537863502563  0.3787620356068814   T   T   T
  0.4369326120184240  0.2789205029553230  0.1869722296677239   F   F   F
  0.1720895313077066  0.2821117487325968  0.4683220338162353   T   T   T
  0.9288475075347833  0.0303434651718888  0.1849901291347464   F   F   F
  0.0951803283649681  0.3581687097200117  0.0963896308090000   F   F   F
  0.8522495756877991  0.3657423143047495  0.3748416494529760   T   T   T
  0.2688317292672215  0.6936569656683028  0.2798146987456545   T   T   T
  0.1841953152333744  0.0321676942435758  0.1864276866116583   F   F   F
  0.3522376210066653  0.6179150680201602  0.0938747235305115   F   F   F
  0.7672411258326871  0.7015633910156456  0.2763130193229364   T   T   T
  0.1070475001238692  0.8694260410610825  0.3814665442125757   T   T   T
  0.6873115761227453  0.7848499882966919  0.1854635401733020   F   F   F
  0.9511543755339769  0.2968157156912758  0.4652639059111620   T   T   T
  0.1771189867315925  0.5279833537196552  0.1904033727955223   F   F   F
  0.4374415268402694  0.7865144269336073  0.4660668990075383   T   T   T
  0.6030916664419191  0.3549586579713397  0.3757035204928583   T   T   T
  0.9266637217845499  0.2800998504130590  0.1884301483957032   F   F   F
  0.9249224064477204  0.7777091834564587  0.1887620360979838   F   F   F
  0.1746077119994797  0.0285904932631789  0.4668197557437934   T   T   T
  0.5980494571726069  0.6266630803118858  0.0921138153372496   F   F   F
  0.0233186066005081  0.4526147195539054  0.2834085331707937   T   T   T
  0.5112566877030732  0.9429073708211643  0.2775434816713028   T   T   T
  0.4315183001541629  0.0256868854931634  0.4684639420977001   T   T   T
  0.6885448107788525  0.7877501887062373  0.4661262386638409   T   T   T
  0.5997276822881901  0.8624796485348583  0.0950512422885836   F   F   F
  0.8463206583458529  0.1156714719620808  0.0984029317700461   F   F   F
  0.0121662288947733  0.9435054306344731  0.2746061230298410   T   T   T
  0.5981414978786092  0.1233108561089998  0.3770927782375831   T   T   T
  0.3490897606902975  0.1130739904385897  0.3819418008928449   T   T   T
  0.5091430339297337  0.7022088796637992  0.2784376285250408   T   T   T
  0.0969659406864166  0.3629364034490848  0.3763980872966678   T   T   T
  0.4362860048133612  0.0363746094463551  0.1860481099390654   F   F   F
  0.1001952566195854  0.1112913083433043  0.0949166396916468   F   F   F
  0.9379137720920383  0.5295977168837496  0.1890792900908735   F   F   F
  0.0963977928563969  0.6098827236719790  0.3746010294215480   T   T   T
  0.6854633078245058  0.5407050616459301  0.1860078502717286   F   F   F
  0.7651532436954348  0.4492111442994319  0.2823337815488410   T   T   T
  0.6879448333944040  0.0308774809544161  0.1825549609548531   F   F   F
  0.9383879176074859  0.7930127908491639  0.4686484216119796   T   T   T
  0.9437883469932937  0.0402646106526702  0.4673913845040438   T   T   T
  0.1026614950423053  0.8703045820988891  0.0957670105616941   F   F   F
  0.1944989835917069  0.7962780808317418  0.4698729326925536   T   T   T
  0.6754743853134997  0.2760573319577020  0.1851160669809104   F   F   F
 
  0.00000000E+00  0.00000000E+00  0.00000000E+00
  0.00000000E+00  0.00000000E+00  0.00000000E+00
  0.00000000E+00  0.00000000E+00  0.00000000E+00
  0.00000000E+00  0.00000000E+00  0.00000000E+00
  0.00000000E+00  0.00000000E+00  0.00000000E+00
  0.00000000E+00  0.00000000E+00  0.00000000E+00
  0.00000000E+00  0.00000000E+00  0.00000000E+00
  0.00000000E+00  0.00000000E+00  0.00000000E+00
  0.00000000E+00  0.00000000E+00  0.00000000E+00
  0.00000000E+00  0.00000000E+00  0.00000000E+00
  0.00000000E+00  0.00000000E+00  0.00000000E+00
  0.00000000E+00  0.00000000E+00  0.00000000E+00
  0.00000000E+00  0.00000000E+00  0.00000000E+00
  0.00000000E+00  0.00000000E+00  0.00000000E+00
  0.00000000E+00  0.00000000E+00  0.00000000E+00
  0.00000000E+00  0.00000000E+00  0.00000000E+00
  0.00000000E+00  0.00000000E+00  0.00000000E+00
  0.00000000E+00  0.00000000E+00  0.00000000E+00
  0.00000000E+00  0.00000000E+00  0.00000000E+00
  0.00000000E+00  0.00000000E+00  0.00000000E+00
  0.00000000E+00  0.00000000E+00  0.00000000E+00
  0.00000000E+00  0.00000000E+00  0.00000000E+00
  0.00000000E+00  0.00000000E+00  0.00000000E+00
  0.00000000E+00  0.00000000E+00  0.00000000E+00
  0.00000000E+00  0.00000000E+00  0.00000000E+00
  0.00000000E+00  0.00000000E+00  0.00000000E+00
  0.00000000E+00  0.00000000E+00  0.00000000E+00
  0.00000000E+00  0.00000000E+00  0.00000000E+00
  0.00000000E+00  0.00000000E+00  0.00000000E+00
  0.00000000E+00  0.00000000E+00  0.00000000E+00
  0.00000000E+00  0.00000000E+00  0.00000000E+00
  0.00000000E+00  0.00000000E+00  0.00000000E+00
  0.00000000E+00  0.00000000E+00  0.00000000E+00
  0.00000000E+00  0.00000000E+00  0.00000000E+00
  0.00000000E+00  0.00000000E+00  0.00000000E+00
  0.00000000E+00  0.00000000E+00  0.00000000E+00
  0.00000000E+00  0.00000000E+00  0.00000000E+00
  0.00000000E+00  0.00000000E+00  0.00000000E+00
  0.00000000E+00  0.00000000E+00  0.00000000E+00
  0.00000000E+00  0.00000000E+00  0.00000000E+00
  0.00000000E+00  0.00000000E+00  0.00000000E+00
  0.00000000E+00  0.00000000E+00  0.00000000E+00
  0.00000000E+00  0.00000000E+00  0.00000000E+00
  0.00000000E+00  0.00000000E+00  0.00000000E+00
  0.00000000E+00  0.00000000E+00  0.00000000E+00
  0.00000000E+00  0.00000000E+00  0.00000000E+00
  0.00000000E+00  0.00000000E+00  0.00000000E+00
  0.00000000E+00  0.00000000E+00  0.00000000E+00
  0.00000000E+00  0.00000000E+00  0.00000000E+00
  0.00000000E+00  0.00000000E+00  0.00000000E+00
  0.00000000E+00  0.00000000E+00  0.00000000E+00
  0.00000000E+00  0.00000000E+00  0.00000000E+00
  0.00000000E+00  0.00000000E+00  0.00000000E+00
  0.00000000E+00  0.00000000E+00  0.00000000E+00
  0.00000000E+00  0.00000000E+00  0.00000000E+00
  0.00000000E+00  0.00000000E+00  0.00000000E+00
  0.00000000E+00  0.00000000E+00  0.00000000E+00
  0.00000000E+00  0.00000000E+00  0.00000000E+00
  0.00000000E+00  0.00000000E+00  0.00000000E+00
  0.00000000E+00  0.00000000E+00  0.00000000E+00
  0.00000000E+00  0.00000000E+00  0.00000000E+00
  0.00000000E+00  0.00000000E+00  0.00000000E+00
  0.00000000E+00  0.00000000E+00  0.00000000E+00
  0.00000000E+00  0.00000000E+00  0.00000000E+00
  0.00000000E+00  0.00000000E+00  0.00000000E+00
  0.00000000E+00  0.00000000E+00  0.00000000E+00
  0.00000000E+00  0.00000000E+00  0.00000000E+00
  0.00000000E+00  0.00000000E+00  0.00000000E+00
  0.00000000E+00  0.00000000E+00  0.00000000E+00
  0.00000000E+00  0.00000000E+00  0.00000000E+00
  0.00000000E+00  0.00000000E+00  0.00000000E+00
  0.00000000E+00  0.00000000E+00  0.00000000E+00
  0.00000000E+00  0.00000000E+00  0.00000000E+00
  0.00000000E+00  0.00000000E+00  0.00000000E+00
  0.00000000E+00  0.00000000E+00  0.00000000E+00
  0.00000000E+00  0.00000000E+00  0.00000000E+00
  0.00000000E+00  0.00000000E+00  0.00000000E+00
  0.00000000E+00  0.00000000E+00  0.00000000E+00
  0.00000000E+00  0.00000000E+00  0.00000000E+00
  0.00000000E+00  0.00000000E+00  0.00000000E+00
