Pt Pd Ni Co Fe 
 1.0000000000000000
     8.9564489999999992   -5.1570619999999998   -0.0271120000000000
     0.0040050000000000   10.3273039999999998    0.0160500000000000
    -0.0007110000000000    0.0043940000000000   22.9221719999999998
 Pt  Pd  Ni  Co  Fe 
  14  14  18  17  17
Selective dynamics
Cartesian
  3.8549809346675392 -1.8772338620287599 10.6827854871132004   T   T   T
  0.0908334884393100  7.1828144347955405  6.4099815675645191   T   T   T
  6.8174618778579594  0.6755329623560400  6.4446165769348802   T   T   T
  0.9375570496822498  0.6858185280080199  8.5990626690636400   T   T   T
  6.0292816817075998  1.9963855665193799 10.7699913264389000   T   T   T
  5.3693294947036199 -1.9282660622261796  2.1660517766565799   F   F   F
  3.0680846907462898  4.4815548273391395  8.5956603489481989   T   T   T
  6.2104441501453493 -0.6238434947026601 10.7296179408888790   T   T   T
  4.6524823708637690  7.2059200643745411  6.5024535819978002   T   T   T
  3.0932895416499897 -0.5624341614634399  2.2287870936206602   F   F   F
  7.6125928452430482 -3.1158662268144197  8.5466559495205612   T   T   T
  2.3654637563452199  8.5026203123904605  6.4632556730311004   T   T   T
  2.4164320683690894  0.7837495660927599  6.3593043207652995   T   T   T
  3.8809372408981195  3.3465316861107799  4.2494234849108601   F   F   F
  7.6712127001193702 -3.2311567095729394  2.2168095083451198   F   F   F
  6.1950448037512791  4.6027970889112799 10.8597601097393603   T   T   T
  5.4006020397697503  3.2841272871212004  2.1274969764408600   F   F   F
  7.6488536375980187  1.9747082015441806  2.1334775190525801   F   F   F
  8.4511381616173793 -1.8565402960131596  4.3013317295692000   F   F   F
  7.6153678658331296  1.9809769990561004  8.6393232412209198   T   T   T
  5.3854896460879793  5.8135642058808408  8.6088344168198407   T   T   T
  6.0927736364864096 -3.2870185415741799  4.3743477350891595   F   F   F
  2.3575857329186101  5.8208884097432199  6.3798798179030394   T   T   T
  1.5940154377100699 -0.5830483834426401 10.8491578160951789   T   T   T
  4.7127961905644700  4.5025577880422798  6.4042466478098197   T   T   T
  3.7760939416638895  5.8204741174919397 10.8609778495887195   T   T   T
  6.0917418536803192 -0.5683981391728999  4.2754380865164201   F   F   F
  0.9559215529310700  5.8569386235745995  2.1763371181949402   F   F   F
  6.1556298992491492  1.9978116932937409  4.2542864562780798   F   F   F
  0.9132208804462500  8.4240307300170798  8.6440056162758605   T   T   T
  3.1303599903834294  4.6015094344370002  2.1420667333536998   F   F   F
  1.5873575352163196 -0.6628704536719999  4.3151681183353601   F   F   F
  0.9884434479041699  3.2618927771017603  2.2320193319967401   F   F   F
  0.0723138218844300  9.7646629755436809  6.4376363761728594   T   T   T
  5.2777163124810000  0.6888473227506402  8.5722499571616400   T   T   T
  5.3260739269937103  5.8180302331574003  2.2097667353720603   F   F   F
  7.6749044983564492 -0.5764667515767403  8.5820857979685208   T   T   T
  0.9208959104599199  0.6747199091916599  2.2585246231964997   F   F   F
  5.3662392459395090  0.6882510267170003  2.1560981193743798   F   F   F
  0.1568891343985200  1.9869747345079201  6.4122109602729198   T   T   T
  3.7893428024765399 -1.9102393397676998  4.3424106188118197   F   F   F
  3.1918583973194998 -0.5776858611005200  8.5720917319073600   T   T   T
  0.8920804224278700  5.8533923589547001  8.6408988138893186   T   T   T
  5.3601676414990189  3.1887047491291005  8.5319106995395799   T   T   T
  5.3643711349835996 -1.8074624443776404  8.5665485319925203   T   T   T
  4.6255734453663901 -0.5383398687890999  6.4855704697096401   T   T   T
  8.4476128277124900 -1.8720244144196798 10.6689292534467803   T   T   T
  1.6521027000339596  7.1819873651965001  4.2742535782082198   F   F   F
  3.7912744547100896  5.8979717600997406  4.1990102978886403   F   F   F
  3.1803639305453095  1.9271949185938200  8.5966948082082393   T   T   T
  3.8438924265475194  0.7504171069715401  4.2273653455880993   F   F   F
  3.0308583520461592  7.2001305891232787  8.6317978437742404   T   T   T
  1.6581680251920901  4.6292687508561601  4.2740832305989800   F   F   F
  8.4502500804850484 -4.5578746338462199  4.3789318155940000   F   F   F
  3.0699055733551197  1.9786570578329603  2.1931312883990399   F   F   F
  1.6612038669909601  1.9427826497087797  4.2073830777046997   F   F   F
  8.3385438438689974 -4.4171230005994797 10.6476781801892404   T   T   T
  0.9147212472546000  8.4393838875694787  2.2862811138371599   F   F   F
  6.9306829752827692 -1.8602685467548599  6.4707865947819592   T   T   T
  1.5554309758837199  4.5411725102648797 10.6446235229753192   T   T   T
  1.5785511191108998  7.0928580377295800 10.6229975444737796   T   T   T
  8.3923288592565601  3.3489450821713596  4.2310546945894005   F   F   F
  2.2848134171289294  3.2831540543436804  6.3902556911563400   T   T   T
  8.4119201485424995  3.2541614610902805 10.7425995267860799   T   T   T
  3.1409427857448593  7.1305459869373404  2.2729584031380199   F   F   F
  1.6141594427689496  2.0307387327131203 10.7308640199329002   T   T   T
  7.6388803319574885  4.5482652578177598  8.6067189663282999   T   T   T
  6.2264964365041493  4.5345721194653787  4.2304181658555997   F   F   F
  6.9992030763224093  5.8411796394540998  6.4236120237760401   T   T   T
  0.8724840910795799  3.3234344060118404  8.6221871987765990   T   T   T
  6.9161190460752593  3.3293890037779406  6.3860310383431793   T   T   T
  7.5966801129809998 -0.6305575224173000  2.0734970939818598   F   F   F
  6.2093410409127587 -3.1403441257825193 10.7251568751705602   T   T   T
  3.7962849665585701  3.2308498113097999 10.6764427692021400   T   T   T
  8.4164894230572003  0.7786519783995205  4.2946841770678805   F   F   F
  0.1583761845104100  4.4727233137785394  6.5119332873535605   T   T   T
  7.6667828831315088  4.5701741828733411  2.1686339270022801   F   F   F
  8.4636870018060577  0.6190721550776401 10.6972913593914409   T   T   T
  4.6364303752501499  1.9607002276961398  6.4495335376939202   T   T   T
  3.8269972903463993  0.7433734768680205 10.6322218370511798   T   T   T
