Pt Pd Ni Co Fe 
 1.0000000000000000
     8.9845959999999998   -5.1242000000000001    0.0030630000000000
     0.0408230000000000   10.3251139999999992    0.0249720000000000
     0.0492080000000000    0.0155290000000000   22.9187680000000000
 Pt  Pd  Ni  Co  Fe 
  18  15  16  18  13
Selective dynamics
Cartesian
  5.4273508518571196 -1.9012732539874400  2.1782117767005200   F   F   F
  3.8833250166461801  3.4027581934278195  4.2762556817516000   F   F   F
  1.7395156069959998  7.0294743592801883 10.7926589224026905   T   T   T
  1.6991285344761200  2.0184197246127398 10.8187119305128601   T   T   T
  8.3877707609766006 -4.3953409474716709 10.7838477107346691   T   T   T
  1.7803831109284698  7.1856695356520497  4.2553052928978703   F   F   F
  1.7174320984204798 -0.6155150231103601 10.7998062408513906   T   T   T
  7.7153632130314005  4.6453954022282185  8.4892665445713007   T   T   T
  3.1458619451095400  4.6321083586373488  8.6618703233706995   T   T   T
  8.4384041033020907  0.7852181131407000  4.2893374399929396   F   F   F
  3.9638625913955501  3.2959526021941392 10.8507372818892502   T   T   T
  5.4063746349176798  3.2111050713886997  8.4349929110752093   T   T   T
  6.2341156218776499  4.6111472238693487  4.1963999681219901   F   F   F
  5.4357379950514995  6.0155224074636893  8.4876293512354994   T   T   T
  6.1757397570469701  4.6078877837998196 10.8321289647518313   T   T   T
  2.4798806185515598  5.9153933833058900  6.4631467744641107   T   T   T
  2.6092369785093599  8.5680215530900394  6.4283622299250407   T   T   T
  2.4526059898985997  3.2564095603443195  6.4651639881624101   T   T   T
  8.3954226076896195 -1.8800229100641808  4.1710921573020094   F   F   F
  3.9114905133375397  0.6668697328076396  4.1844074991859905   F   F   F
  0.2101090071665800  9.7277922340364693  6.3100607366461903   T   T   T
  3.1216574854411396  1.9732329227822096  2.0391417613792999   F   F   F
  1.0108184840466601  8.4016548571751279  8.5470717325597310   T   T   T
  8.4230871494405903  3.2127735466581493 10.8958416128657998   T   T   T
  1.6262313930414400  1.9736234781702400  4.2031156268142604   F   F   F
  4.0307200400311203  0.6808487995713397 10.7441489305021705   T   T   T
  7.6855190093784902  2.0609142460666692  2.0855956923989498   F   F   F
  0.0823336989871900  1.9940663794181797  6.4136090725015800   T   T   T
  4.0349502656348992 -1.9383509231773803 10.8084387652881606   T   T   T
  8.3536009140408893 -1.7395905292676903 10.8979411255418306   T   T   T
  7.6736362278437396  1.8814645827409797  8.5060709560625387   T   T   T
  6.1840903484423491 -0.5711552187237201  4.2824337628973694   F   F   F
  0.8264211940714600  3.2870915172207096  8.6098787377153503   T   T   T
  1.6774045465190399  4.6150921202955395  4.2914656412229499   F   F   F
  0.9815582176356199  8.4398748866213893  2.0907225257970299   F   F   F
  0.8477259483008200  0.6156873389450298  2.1413676794926699   F   F   F
  0.9366252198471899  5.8410479938814301  2.1446898465629500   F   F   F
  5.4229691406478899  3.3389451642838002  2.1154470532458602   F   F   F
  6.1881029331134894 -3.1316312513763198 10.6477497924709894   T   T   T
  3.9886492620382303  5.9279847481491394  4.2204754436328296   F   F   F
  5.4185217053391099  5.8235996678036495  2.1424319921864101   F   F   F
  8.4896504207250505  3.3908473590656696  4.1867069269919899   F   F   F
  7.5986624236819500 -3.0813139368797202  8.5114600527492694   T   T   T
  3.0813433530413299 -0.6890689979561900  2.1263499722763699   F   F   F
  7.7104444732703801  4.6370266712976891  2.1044915900401300   F   F   F
  6.1774784860815499  2.0278107190102994  4.2589096077521402   F   F   F
  3.1839608008520499  1.9142155931784399  8.5295599051238700   T   T   T
  6.9129755427555200  3.2726583744445294  6.3230859788939497   T   T   T
  0.1460471017676000  7.1314828528755889  6.4087930391520498   T   T   T
  3.1225835606673198  4.6022222960767900  2.1530378991604602   F   F   F
  1.6721574157501800  4.5850960023628993 10.7592874885684893   T   T   T
  4.7443249089278208  1.8869321246401094  6.3798348681829999   T   T   T
  6.1555115362157098 -3.1590342183761502  4.2829778772476503   F   F   F
  3.2162644357428403 -0.5400028007905403  8.5492267659743391   T   T   T
  0.0221089967675100  4.6441491231623990  6.4905466010267991   T   T   T
  6.8728735296399801  5.9487853731733891  6.3608722199516494   T   T   T
  5.3652710403831394 -1.7681756840543901  8.5119677124705309   T   T   T
  3.9624691571858994  5.8590475099154897 10.7199393332986297   T   T   T
  5.4808994195304503  0.7377685083072996  2.1229797396202001   F   F   F
  5.3383562279651908  0.6432960333723493  8.4961288442006708   T   T   T
  0.9198534161225900  3.3896038395039798  2.0806964656105800   F   F   F
  6.2542911652614297  1.8719502528638898 10.6493996037671188   T   T   T
  4.8011193597068003  7.2470746051533199  6.3790291349436901   T   T   T
  3.2775442472562495  7.2565919422445990  8.6333043517976300   T   T   T
  4.7523622616604309 -0.5213570865487303  6.4942399834292202   T   T   T
  7.7179484923051502 -0.5425344717376706  2.0606345765046199   F   F   F
  1.0091784066088398  0.6927679255397099  8.5987503692801006   T   T   T
  4.7860015224346597  4.6271928525703592  6.3610373450828996   T   T   T
  8.3751933050240286 -4.4561778505116605  4.1938313546536099   F   F   F
  3.1724986529358201  7.0842199060611586  2.1532353354835401   F   F   F
  8.4614023016144699  0.7132036075201096 10.7152672949747494   T   T   T
  0.9148046890582500  5.8388926177282396  8.5640914364991101   T   T   T
  2.5002225434433303  0.7352599522172597  6.5426679659738198   T   T   T
  6.1937662433274898 -0.5498825558658106 10.5595876642591602   T   T   T
  6.9165010986091806  0.7880382002029497  6.3595885446026701   T   T   T
  6.8136736735669903 -1.8869130260833904  6.4593746714729905   T   T   T
  1.6454964360616402 -0.6225326592805102  4.1446027933259497   F   F   F
  7.5972719999598688 -0.6421017241063895  8.5467270328955003   T   T   T
  3.9374316907507101 -1.8991419283436100  4.2686996531506702   F   F   F
  7.6248798194064591 -3.2469027659977794  2.1084940468022699   F   F   F
