Pt Pd Ni Co Fe 
 1.0000000000000000
     9.0348150000000000   -5.1878500000000001   -0.0082870000000000
    -0.0577960000000000   10.2815770000000004   -0.0342180000000000
    -0.0094090000000000   -0.0583070000000000   22.9315239999999996
 Pt  Pd  Ni  Co  Fe 
  17  17  16  16  14
Selective dynamics
Cartesian
  4.6006943808456198  7.0817447270863108  6.4945003387486100   T   T   T
  2.2669109307245496  8.3814186780180506  6.3788598563458896   T   T   T
  3.8239752783414902  5.8870920654534213  4.1796454859345005   F   F   F
  8.3859637510690703 -1.9815607092418397  4.2504054727682599   F   F   F
  6.1844576764150094  1.9359147319653807 10.7124518099546293   T   T   T
  5.3417601958567298 -1.8742766868847598  2.2315170744380901   F   F   F
  1.5632830856215700  7.1144649066953098 10.8662651099469993   T   T   T
  3.8574966603853702  0.6482845779227600 10.8137090831245288   T   T   T
  0.1563171955343400  4.4904545770006701  6.4605956721874698   T   T   T
  3.8303538491239797  3.2111309604918401  4.1806483240697005   F   F   F
  4.5927000609628701  4.3569169099167100  6.5124210796843496   T   T   T
  5.3970375760074001 -1.9756543188665503  8.7804061116090502   T   T   T
  7.7144308625757603  2.0553405409815801  2.1166878407740000   F   F   F
  6.9437112052644592  5.7177597888909801  6.5370783873006806   T   T   T
  0.9549652661722100  5.8279637339213304  2.0495320194363402   F   F   F
  8.5061127848411608 -4.5936905434795205  4.2084181779746697   F   F   F
  0.8290376876007500  0.7052374502612501  8.6122591194297495   T   T   T
  3.0130707060930204  1.8846078006032601  2.0489648081850600   F   F   F
  6.9254558647868203 -1.9239677961728401  6.5339361311556097   T   T   T
  3.8223601370876001  5.6288099830839000 10.8711789352403088   T   T   T
  7.6700937781329408 -0.6443774681683297  2.1284115150151899   F   F   F
  3.1342102324829000 -0.6379101880397998  8.6409633626824487   T   T   T
  3.8704313055416901  0.5406607942746700  4.2460580712174405   F   F   F
  6.9216803716693294  3.0616603860453404  6.4314453685345692   T   T   T
  0.9174434333320599  5.8280649626653300  8.6434981258795602   T   T   T
  8.4002501328315304  0.6999976181998903  4.3223185989599395   F   F   F
  2.3825505114372501  0.7249838561797000  6.4153570457178191   T   T   T
  8.4963386059345591 -4.5651784044259704 10.9661255589007300   T   T   T
  5.4135491881258497  5.8045102062469507  2.0249934280727899   F   F   F
  6.1836377157977802  4.4653066085956405  4.2197673472265400   F   F   F
  6.1810186045454296 -3.2420664637950596 11.0232827012999994   T   T   T
  2.3497053473872502  5.7721286250451014  6.4265859605018099   T   T   T
  5.3783086565193203  3.2087141688729601  2.0195530144979901   F   F   F
  7.6742463429149197 -0.6302222963099393  8.7151130757706703   T   T   T
  1.6495142719320199 -0.6720939292419901  4.2427020483958602   F   F   F
  0.9206866733889000  8.4574018685521004  2.0792267786469401   F   F   F
  8.4953478535721008  3.1963075534456000  4.2684233849435795   F   F   F
  8.3768606505530592  0.6088640445590311 10.8092947238331298   T   T   T
  5.3847502469268598  0.6350913278920304  2.1369248363284901   F   F   F
  3.0419857766422003  7.1774459294310002  2.0790778569808896   F   F   F
  7.7322861009001196  4.5563589669944609  1.9888086998149499   F   F   F
  6.8537793037398007  0.6165583311225501  6.4588450050428898   T   T   T
  8.4185972638025390  3.1335912621343214 10.6106490708384502   T   T   T
  3.8947391445540398 -1.9288468570065298  4.3320373152628395   F   F   F
  6.1469776693832205  1.8416134760028604  4.2500179884952596   F   F   F
  7.6145658894003390  4.4182141156945196  8.6787160168915296   T   T   T
  6.1211557056396195 -0.7005982898245897  4.4206661391918693   F   F   F
  0.8906570835045601  0.6256791597498300  2.0793729537431100   F   F   F
  0.1792855089558600  1.9193006973486801  6.4084252548502292   T   T   T
  8.4336709199563700 -1.9563113915771893 10.7366696019530590   T   T   T
  0.0668354820660100  7.1238015046306309  6.4645663379113794   T   T   T
  3.1239877744683899  4.5492304115447197  1.9659857730685597   F   F   F
  0.8885769102528900  3.2106242961704199  2.0994919287167799   F   F   F
  1.6342149820156600 -0.6715596933877701 10.6904296711756199   T   T   T
  3.2486224595263296  2.0517729880688904  8.5491950570703494   T   T   T
  1.6028032878885099  7.1660965421379306  4.2033323918114096   F   F   F
  5.3349349293061801  5.6572381652695398  8.6995189375516091   T   T   T
  1.6074005403529301  1.9284635342836900  4.2163495196929004   F   F   F
  6.1499901447964689 -0.6323293305294396 10.8063281620910292   T   T   T
  2.3422260648361704  3.1784830906914103  6.3850138717151799   T   T   T
  0.9893225045736300  3.2232799205446900  8.5644692469761399   T   T   T
  7.6604084309275811  1.9489217639557401  8.5791081956235598   T   T   T
  4.6790113495863190  1.8003098049360102  6.5198133657823201   T   T   T
  5.3937453786440503  0.7064791772885500  8.5223591511234407   T   T   T
  1.6124767784393501  4.4699709529254505  4.1552772139421403   F   F   F
  0.7305783487687401  8.3825102247576204  8.5352470298376204   T   T   T
  3.8573697112863701 -1.9174652707279398 10.9031896685575092   T   T   T
  4.7049461135018191 -0.6013799339441399  6.4579895635397291   T   T   T
  3.0884936185949003 -0.6639246783699999  2.1129912140466800   F   F   F
  7.7773238895991099 -3.2655852651236201  2.0687029635728997   F   F   F
  3.1378328485442899  7.0459311030754694  8.7487908938002885   T   T   T
  3.8217822641251100  3.1458657240660308 10.6520846889066902   T   T   T
  1.4661478268950099  4.4364228870187299 10.6929407874057905   T   T   T
  1.6351253652400501  2.0267082755068500 10.6764072450575700   T   T   T
  7.6366332656153695 -3.3135989416076894  8.7555392871435611   T   T   T
  3.1332887065206698  4.3630238010894100  8.5964785868720295   T   T   T
  6.1386309054624002 -3.1809642628565000  4.4083608787354303   F   F   F
  6.1678398996128099  4.4797888515933808 10.6333176449085407   T   T   T
  0.0995916101846200  9.6005503624404103  6.4163419520335703   T   T   T
  5.4460891820113098  3.1253854512898811  8.5640509567587397   T   T   T
