Pt Pd Ni Co Fe 
 1.0000000000000000
     8.9674209999999999   -5.1014980000000003   -0.0417960000000000
     0.0607130000000000   10.3143170000000008    0.0324100000000000
    -0.0101430000000000    0.0251350000000000   22.9479520000000008
 Pt  Pd  Ni  Co  Fe 
  16  16  17  17  14
Selective dynamics
Cartesian
  4.0284555656300496 -1.8424350387328101  4.2936683678399001   F   F   F
  3.9431720868008200 -1.9842506986724602 10.8070587500034208   T   T   T
  1.6630281670655500  2.0746054272662202 10.8206574139726399   T   T   T
  0.9209177192246399  5.8687045375715003  8.4941836822763008   T   T   T
  8.3547022593148093  3.2958921331588509 10.8261847482728601   T   T   T
  3.1214492597815995 -0.6687095518697500  8.5554933622873008   T   T   T
  3.2802238921456297  7.1735324873632909  2.1902359007509999   F   F   F
  6.8483161125910188  3.2067323874221603  6.3349571781489802   T   T   T
  1.6575393604771800  2.1031493612146401  4.1950909539355399   F   F   F
  4.7085646030511894 -0.5934307709242200  6.4585250441455999   T   T   T
  3.2526545530511299  4.4349708494899405  2.2158658700397402   F   F   F
  7.5980331885796391 -3.1235183767655901  2.0674907016469199   F   F   F
  8.3542947792519993  0.7478442805308603 10.7565884486072800   T   T   T
  8.3005960932575302 -1.8291325161179204 10.7421786789993998   T   T   T
  5.5085323084158899  0.6962666112271506  8.5898167052313603   T   T   T
  0.2562524296057500  9.6330039133146297  6.4406186297592001   T   T   T
  0.9144693835997401  0.7940239640959701  8.5831594510061606   T   T   T
  3.1831167865491898  4.6015191703382001  8.5419395609627600   T   T   T
  8.3001918040758209 -4.4535587580797200  4.2024242376607601   F   F   F
  6.7842603175532101  5.9516717592377306  6.4251420378126802   T   T   T
  1.6433995733605600 -0.6564043996428300 10.8811068043533403   T   T   T
  1.6727192849411301 -0.5728493003180800  4.2140813762449598   F   F   F
  7.6635530940790701  4.6511474922317904  8.5887169728692800   T   T   T
  5.4181621700782099  3.3342735413089204  8.5801762208101398   T   T   T
  7.5894853884197104 -0.5101626743790598  2.2127306223028200   F   F   F
  4.0178656142457996  0.8028478270733999  4.2981152379914800   F   F   F
  3.9529838106109403  3.3921471324244306 10.9062751681713017   T   T   T
  3.9635250786839102  0.7133287274131299 10.8832896402913608   T   T   T
  0.1518474778132200  2.1167148341491901  6.4469574390697595   T   T   T
  1.6628506147300199  7.1463502474333112  4.3753436063468003   F   F   F
  0.8931688287455399  5.8297374741992707  2.2227248001540003   F   F   F
  8.2701313791166804 -4.4014782315012102 10.8708821750388207   T   T   T
  4.5958003899980602  7.1187363574670801  6.5311336125784205   T   T   T
  6.1474694940183703 -3.1249095376440001  4.2399973822395998   F   F   F
  6.9170269989608393 -1.8122156637155802  6.4383309551473999   T   T   T
  0.9306385556903299  0.6731378202530500  2.0372361471813600   F   F   F
  3.1551967808299999  2.0094978839610902  8.5085088278542393   T   T   T
  3.2031849220624702  7.1158514818212506  8.5968530296443397   T   T   T
  3.1918175428056395 -0.5208598463656400  2.0961608010978803   F   F   F
  6.0993112610582099 -3.1714375197099001 10.6745794717176601   T   T   T
  1.6583065645215398  4.6313817151505008 10.7570722699258816   T   T   T
  2.4475628119302799  5.8180810790507600  6.4080996171140798   T   T   T
  2.4310672622526299  8.3432864266473015  6.5316984978023402   T   T   T
  1.7304268998351400  7.0804867456156808 10.7008847843816817   T   T   T
  4.0361485249533500  3.3204761527429598  4.3010967390088801   F   F   F
  3.1415898826463495  1.9269449209921705  2.1250687144858200   F   F   F
  6.1387490568322507 -0.5825603687476300 10.7215278580372395   T   T   T
  4.5926402651385896  4.5860321078429402  6.3589520938787398   T   T   T
  7.6491089252840894  2.1354110730519098  2.1866903189069999   F   F   F
  2.4776650196474299  3.2781889459072207  6.4010294308680207   T   T   T
  0.1515939485104900  4.6520742250582803  6.3721648915497395   T   T   T
  6.1186826472531504  4.6462635720236607 10.7286372067773410   T   T   T
  5.3993419621954493  5.9844594624304808  8.6905930665345004   T   T   T
  5.3788437067923400 -1.7677079675184204  2.0849515216360399   F   F   F
  7.7322880217190102 -0.6136024165890696  8.4441374402946607   T   T   T
  5.4966166840644899  3.2370777690465697  2.1570100802291803   F   F   F
  8.3225940363898303  3.2359568187135501  4.1931240151404001   F   F   F
  0.8002155748996299  8.5093730748971197  2.1871078873244003   F   F   F
  3.9911361663018701  5.8402186231923299  4.3195969426092402   F   F   F
  6.2005581273662207  2.0835775340475804  4.1660448789768596   F   F   F
  1.6858347970057999  4.6144003526486701  4.3667504090568805   F   F   F
  4.0171731168512999  5.8897274514337496 10.6919341974547208   T   T   T
  7.7265520488110306  1.9789650876348097  8.5196073644319004   T   T   T
  8.3950433173004715  0.7783910615432897  4.3239354610956804   F   F   F
  6.1115291157488691  4.5780337078787801  4.2484466087747803   F   F   F
  4.5617633579764689  2.0710576306171000  6.4554443763451808   T   T   T
  6.9470060366411506  0.6747356662885898  6.4251832731159801   T   T   T
  0.9474452781353200  3.1973694537630801  2.0442033043096801   F   F   F
  6.1822478721268190  2.0527651583028308 10.7464418967972009   T   T   T
  5.3407797687023093  0.7082166074155800  2.1419765822855399   F   F   F
  0.9368586062175701  3.3159717238016602  8.5903491780299408   T   T   T
  7.7212296936724698  4.5635070026837399  2.1376062867057799   F   F   F
  7.5343860939406904 -3.0384599899974298  8.5917838876035404   T   T   T
  0.9372999503683300  8.3910367525088301  8.6459327197167006   T   T   T
  2.4361486829510506  0.7729008029467603  6.4753295690350408   T   T   T
  8.3458548342141192 -1.7799087242168503  4.3036154357693199   F   F   F
  5.4550720733919409  5.8041334138364897  2.1824421521002200   F   F   F
  6.2159801102689505 -0.5417943876518303  4.3751526608642202   F   F   F
  0.1720177916782900  7.0868938299235102  6.4057026637537202   T   T   T
  5.4127598838215105 -1.9433531288092698  8.5968527684074001   T   T   T
