Pt Pd Ni Co Fe 
 1.0000000000000000
     8.9376460000000009   -5.1802149999999996   -0.0567110000000000
     0.0080190000000000   10.3804099999999995    0.0354720000000000
    -0.0291720000000000    0.0284160000000000   22.9142790000000005
 Pt  Pd  Ni  Co  Fe 
  15  14  16  18  17
Selective dynamics
Cartesian
  8.3337268746521005 -4.4603555423417793  4.2339768847038197   F   F   F
  8.3291261059342112  3.3248175551333499 10.7783148419585011   T   T   T
  8.2886954073358208 -4.4835768634924698 10.7187303272253605   T   T   T
  7.5150046232724801 -3.1312375214939792  2.0980498511863401   F   F   F
  6.0335424153604604 -0.5411675066216095 10.7248446749764597   T   T   T
  3.0754595328558705 -0.5820503327077199  2.1562755907001199   F   F   F
  8.3452341434290211 -1.8833456857279300 10.7848484694657305   T   T   T
  0.9090219747950200  0.6667963456182601  8.4674415386226105   T   T   T
  3.9273453699899803 -1.8545485155058496  4.3268648994573997   F   F   F
  0.9184002675792101  3.3309310171900499  8.5788737899316807   T   T   T
  3.0541469368545404  7.1967784133330097  8.5392409685257906   T   T   T
  5.3062893309761403  3.3724302817615799  8.5916806732184998   T   T   T
  3.0972154659914999  4.5996237613363800  2.1633015101550299   F   F   F
  4.4893696627735604  1.9488098376789698  6.4983582469454202   T   T   T
  6.0464234651778703  1.9159320838844400  4.2336468130348299   F   F   F
  3.8200092680141098  3.3222409013672398  4.4021767363972204   F   F   F
  7.5962442698836306  1.9779471124940999  8.5669693860019596   T   T   T
  0.1597418917907600  4.5489157947949597  6.4216180006740808   T   T   T
  3.1286732139106999  7.1620609537549704  2.1560415944734999   F   F   F
  3.8010138522161800 -1.9103671674779397 10.7725123625501507   T   T   T
  8.3800140549168507  0.7177573197479294 10.8471329261733800   T   T   T
  6.8695583876468005  5.8885095725603698  6.4947388711454010   T   T   T
  0.2442017786962301  7.2166710094628197  6.5275546733519798   T   T   T
  3.1206311981968704  2.0113212636959203  2.1859074593928800   F   F   F
  8.3403830464390118  3.2959840666310591  4.2355448397718405   F   F   F
  7.5653767577320608  1.9814896606940708  2.0766831818404903   F   F   F
  1.6752585700066103  7.0852331542172298  4.3141000504033098   F   F   F
  4.6301493716273114  7.2151631271144696  6.4778387164477511   T   T   T
  6.7922585067281602  0.6092597441815404  6.4407718867540407   T   T   T
  1.6949259490944499  1.9999865393013903 10.7153061059491712   T   T   T
  0.8429652863222500  3.2863730311018498  2.2373418441625299   F   F   F
  0.8550881571027001  8.5107784425447406  2.1954772580292903   F   F   F
  6.0404770664822616 -3.2259730831809104 10.6297375060050197   T   T   T
  1.6157318898743100  7.1815871799468498 10.6733513783555694   T   T   T
  6.0644671755094004  4.6615249313744505  4.2731032725083500   F   F   F
  1.6104603492565601  2.0155014767399497  4.2743614646413901   F   F   F
  1.6393596452728101 -0.5637986854046598 10.6541201098158194   T   T   T
  8.3276161156057302  0.5908473487164200  4.2528420154919804   F   F   F
  3.8658985181835703  5.7880306522126101 10.6594418605761998   T   T   T
  3.1516737803320805 -0.5801945002547001  8.4864329338079099   T   T   T
  5.3808557733503495  5.8449328336539006  2.2188757205447498   F   F   F
  3.1264767652203305  4.6534741079019106  8.5542111402144005   T   T   T
  1.7114002782659403  4.5951241392458604 10.7324637316899008   T   T   T
  4.5486272357515309 -0.5996653639324200  6.4702391563533697   T   T   T
  0.8396330268446102  0.6684220169629300  2.1832717918296902   F   F   F
  5.2480822230037010  0.7010560064443797  8.6444816049264990   T   T   T
  3.1308841056824903  1.9853373521901696  8.6425224875511812   T   T   T
  2.3418224924933098  8.6357805052319314  6.5016625723014903   T   T   T
  0.1877878320113600  9.7943324068734103  6.4169489951861003   T   T   T
  5.9452719150566899  2.0937953068024595 10.6925236972978706   T   T   T
  7.4589504235325510 -0.7142899446168693  8.5495014606116815   T   T   T
  2.4774605846228903  5.7574874058710206  6.3966898136700809   T   T   T
  2.3166209390861305  0.6432017900982900  6.3257041221626302   T   T   T
  3.9947197799280403  5.8539135618287501  4.3385735311132603   F   F   F
  6.1661919151497706 -0.6532118325858697  4.1811007414913801   F   F   F
  1.6597606043087001 -0.5634314424072200  4.2860261932468697   F   F   F
  6.0702529854916705  4.6326032425758097 10.6692268453387999   T   T   T
  8.3103515294115518 -1.8278255804114898  4.2217286499977300   F   F   F
  5.4407113662266706  0.5646065408750003  2.1113094655619102   F   F   F
  0.8094628700080901  5.7946522599292507  2.2494773746334502   F   F   F
  6.0758083271593106 -3.2001473995073595  4.2338813288452402   F   F   F
  2.3477250750265899  3.3130843488321697  6.4903339088988403   T   T   T
  7.5667291228702007  4.6143385039643094  8.5605565679916698   T   T   T
  6.8506678164128001 -1.9168977065524297  6.3298806562896495   T   T   T
  3.8563337233254105  0.6571027791387798  4.2950415303689198   F   F   F
  1.5037864484755401  4.5139527300030107  4.2827992189484902   F   F   F
  0.9027089621619301  5.8468673548140995  8.6891032871472902   T   T   T
  3.7763575092445802  0.7327691889822202 10.5682053327411598   T   T   T
  0.2777428734296500  1.9885335427468998  6.3560130820206098   T   T   T
  5.3758568857964004 -1.8326344286098097  2.1546246160842801   F   F   F
  6.8671924921493508  3.3422476022131495  6.4164800015194299   T   T   T
  5.4040687356356996  5.9298804063859203  8.7174352052633388   T   T   T
  4.5297912635596598  4.6453281908510000  6.4366396160409698   T   T   T
  5.4105604284308404  3.3696859376349799  2.1574688794786501   F   F   F
  5.3992978661557203 -1.7899323429992495  8.5551312007792788   T   T   T
  7.5456081263647796  4.6318978636938999  2.1219130690947599   F   F   F
  0.9026644114410801  8.5665255212871205  8.6371162248649114   T   T   T
  7.5901836858638907 -3.1477203370587192  8.5687012716495197   T   T   T
  3.7837572450730805  3.3252658328734999 10.6538208385141804   T   T   T
  7.6477318939468413 -0.5608342282048002  2.1142275382097000   F   F   F
