Pt Pd Ni Co Fe 
 1.0000000000000000
     8.9845959999999998   -5.1242000000000001    0.0030630000000000
     0.0408230000000000   10.3251139999999992    0.0249720000000000
     0.0492080000000000    0.0155290000000000   22.9187680000000000
 Pt  Pd  Ni  Co  Fe 
  18  15  16  18  13
Selective dynamics
Cartesian
  5.4273508518571196 -1.9012732539874400  2.1782117767005200   F   F   F
  3.8833250166461801  3.4027581934278195  4.2762556817516000   F   F   F
  1.7305332731273400  7.0353194292570800 10.8486114136059992   T   T   T
  1.6916145299531200  2.0227595306099797 10.8333453472866896   T   T   T
  8.3835996394441299 -4.3922688375165695 10.8458419814602713   T   T   T
  1.7803831109284698  7.1856695356520497  4.2553052928978703   F   F   F
  1.7082783866474898 -0.6102097870740900 10.8523780107551300   T   T   T
  7.7262191531342292  4.6645132619753902  8.5413224640159893   T   T   T
  3.1670806767985300  4.6152053986336297  8.6761731716408406   T   T   T
  8.4384041033020907  0.7852181131407000  4.2893374399929396   F   F   F
  3.9538374670349796  3.2923826413667494 10.8845382401559601   T   T   T
  5.4252756611725204  3.1943913928463799  8.4882736460456609   T   T   T
  6.2341156218776499  4.6111472238693487  4.1963999681219901   F   F   F
  5.4404925464645695  6.0186426222226190  8.5458829213913390   T   T   T
  6.1627708121184801  4.6104576084360689 10.8967597564851708   T   T   T
  2.4826285415538196  5.8932858796638401  6.4721553923438799   T   T   T
  2.6011917666303899  8.5418201564773586  6.4523630999908992   T   T   T
  2.4625782227291197  3.2239749616936302  6.4708533971203499   T   T   T
  8.3954226076896195 -1.8800229100641808  4.1710921573020094   F   F   F
  3.9114905133375397  0.6668697328076396  4.1844074991859905   F   F   F
  0.1867378068928700  9.6962178539334083  6.3261268686368197   T   T   T
  3.1216574854411396  1.9732329227822096  2.0391417613792999   F   F   F
  1.0195500755733100  8.4148777702831890  8.5956951392927703   T   T   T
  8.4166486590887288  3.2287945078430496 10.9801635226325498   T   T   T
  1.6262313930414400  1.9736234781702400  4.2031156268142604   F   F   F
  4.0166187947083696  0.6751271291924795 10.7862381489777697   T   T   T
  7.6855190093784902  2.0609142460666692  2.0855956923989498   F   F   F
  0.0718614431327900  1.9752851690080500  6.4243787578259903   T   T   T
  4.0169734271523998 -1.9395478615197799 10.8238421057530196   T   T   T
  8.3580491777607602 -1.7343964297956205 10.9142310053961200   T   T   T
  7.6985584177944704  1.8822950417265403  8.5737839555285404   T   T   T
  6.1840903484423491 -0.5711552187237201  4.2824337628973694   F   F   F
  0.8420845218039500  3.2894271264090196  8.6199296835113710   T   T   T
  1.6774045465190399  4.6150921202955395  4.2914656412229499   F   F   F
  0.9815582176356199  8.4398748866213893  2.0907225257970299   F   F   F
  0.8477259483008200  0.6156873389450298  2.1413676794926699   F   F   F
  0.9366252198471899  5.8410479938814301  2.1446898465629500   F   F   F
  5.4229691406478899  3.3389451642838002  2.1154470532458602   F   F   F
  6.1812103305470094 -3.1322256465860199 10.7250415798473693   T   T   T
  3.9886492620382303  5.9279847481491394  4.2204754436328296   F   F   F
  5.4185217053391099  5.8235996678036495  2.1424319921864101   F   F   F
  8.4896504207250505  3.3908473590656696  4.1867069269919899   F   F   F
  7.6005184439090892 -3.0643932711311801  8.5664047474015810   T   T   T
  3.0813433530413299 -0.6890689979561900  2.1263499722763699   F   F   F
  7.7104444732703801  4.6370266712976891  2.1044915900401300   F   F   F
  6.1774784860815499  2.0278107190102994  4.2589096077521402   F   F   F
  3.2160490159557198  1.8875239055960797  8.5487165548205191   T   T   T
  6.9089802015925406  3.2489789534971298  6.3511129376776898   T   T   T
  0.1477056783174300  7.1099716827460906  6.4412958171298103   T   T   T
  3.1225835606673198  4.6022222960767900  2.1530378991604602   F   F   F
  1.6652547753434399  4.5895063763560495 10.7685543488028603   T   T   T
  4.7644111973993493  1.8417924054331303  6.4279923100746599   T   T   T
  6.1555115362157098 -3.1590342183761502  4.2829778772476503   F   F   F
  3.2242332872984698 -0.5626549241826400  8.5708806023611306   T   T   T
  0.0249523831236000  4.6218210501065791  6.4944240534984505   T   T   T
  6.8499473777018798  5.9344370921362488  6.3886952982034897   T   T   T
  5.3989050400635694 -1.7650707520970401  8.5567657740109304   T   T   T
  3.9419027921685994  5.8520964193874185 10.7551299576383705   T   T   T
  5.4808994195304503  0.7377685083072996  2.1229797396202001   F   F   F
  5.3735441787932103  0.6240378752370094  8.5409473734451407   T   T   T
  0.9198534161225900  3.3896038395039798  2.0806964656105800   F   F   F
  6.2566668600481101  1.8620150924800503 10.7324240590120699   T   T   T
  4.7951208826666099  7.2412886193553287  6.4197897610614403   T   T   T
  3.2706945493669499  7.2451855968281400  8.6478408856628413   T   T   T
  4.7456716210154193 -0.5423000764306701  6.5299631634527104   T   T   T
  7.7179484923051502 -0.5425344717376706  2.0606345765046199   F   F   F
  1.0217515013836800  0.6957152335327799  8.6376772721150399   T   T   T
  4.7991169537758198  4.5906355939553984  6.3941688891629900   T   T   T
  8.3751933050240286 -4.4561778505116605  4.1938313546536099   F   F   F
  3.1724986529358201  7.0842199060611586  2.1532353354835401   F   F   F
  8.4711100966876103  0.7338160166212994 10.8033162900458102   T   T   T
  0.9483904834164399  5.8537526587968296  8.6097804239043096   T   T   T
  2.4936354845661501  0.6983267936232800  6.5567840211473696   T   T   T
  6.1820416730312093 -0.5428498431656503 10.6386758320889498   T   T   T
  6.9347598622441797  0.7670779883763695  6.3952651243495104   T   T   T
  6.8108586547784400 -1.8773382773480207  6.4943509719544901   T   T   T
  1.6454964360616402 -0.6225326592805102  4.1446027933259497   F   F   F
  7.6096466581083195 -0.6305422240945505  8.5903440400018098   T   T   T
  3.9374316907507101 -1.8991419283436100  4.2686996531506702   F   F   F
  7.6248798194064591 -3.2469027659977794  2.1084940468022699   F   F   F
