Pt Pd Ni Co Fe 
 1.0000000000000000
     8.9674209999999999   -5.1014980000000003   -0.0417960000000000
     0.0607130000000000   10.3143170000000008    0.0324100000000000
    -0.0101430000000000    0.0251350000000000   22.9479520000000008
 Pt  Pd  Ni  Co  Fe 
  16  16  17  17  14
Selective dynamics
Cartesian
  4.0284555656300496 -1.8424350387328101  4.2936683678399001   F   F   F
  3.9610177686685701 -1.9867294185787501 10.8178910910464605   T   T   T
  1.6910767877055000  2.0712298434987599 10.8262829649772208   T   T   T
  0.9343459011196801  5.8838731647540818  8.4745406139926605   T   T   T
  8.3609468546094199  3.2939066074634096 10.8143323567587810   T   T   T
  3.1183846409787397 -0.6501987076556102  8.5848496369967204   T   T   T
  3.2802238921456297  7.1735324873632909  2.1902359007509999   F   F   F
  6.8220363635672898  3.2262877104427701  6.3445870466583401   T   T   T
  1.6575393604771800  2.1031493612146401  4.1950909539355399   F   F   F
  4.7141424883060896 -0.6027304588850702  6.4609936285198000   T   T   T
  3.2526545530511299  4.4349708494899405  2.2158658700397402   F   F   F
  7.5980331885796391 -3.1235183767655901  2.0674907016469199   F   F   F
  8.3492954808345292  0.7341895229484403 10.7074416051342407   T   T   T
  8.3268007123523606 -1.8271840428043498 10.7169330249297197   T   T   T
  5.5271018816402604  0.6764481830486002  8.6054254703716015   T   T   T
  0.2477287153219100  9.6336236321483515  6.4629801329012402   T   T   T
  0.8721440120396800  0.7655935828872902  8.6319919571257007   T   T   T
  3.1805664341236697  4.5897645944468604  8.4970230601885000   T   T   T
  8.3001918040758209 -4.4535587580797200  4.2024242376607601   F   F   F
  6.7988126121666808  5.9708309972805402  6.4382902695462603   T   T   T
  1.6612451183333099 -0.6656236873295800 10.9449941485481599   T   T   T
  1.6727192849411301 -0.5728493003180800  4.2140813762449598   F   F   F
  7.6172961171828106  4.6601868127770105  8.6172578220960201   T   T   T
  5.3980522340650392  3.3084446927398603  8.5838231802697198   T   T   T
  7.5894853884197104 -0.5101626743790598  2.2127306223028200   F   F   F
  4.0178656142457996  0.8028478270733999  4.2981152379914800   F   F   F
  3.9623310148914199  3.4067605546282400 10.8966186075788212   T   T   T
  3.9840885789521101  0.7161924932526400 10.9165967851017403   T   T   T
  0.1872072147677300  2.1066692038005201  6.4699930465266995   T   T   T
  1.6628506147300199  7.1463502474333112  4.3753436063468003   F   F   F
  0.8931688287455399  5.8297374741992707  2.2227248001540003   F   F   F
  8.2948802612674690 -4.4094344605644196 10.9329771182919604   T   T   T
  4.5761869542911402  7.1141224907241103  6.4878347590147012   T   T   T
  6.1474694940183703 -3.1249095376440001  4.2399973822395998   F   F   F
  6.9442123871929402 -1.7940860425878900  6.4097377882853603   T   T   T
  0.9306385556903299  0.6731378202530500  2.0372361471813600   F   F   F
  3.1168815118692197  2.0023088125871999  8.5115154940751605   T   T   T
  3.2059451678319100  7.1269847348247906  8.5624245679818998   T   T   T
  3.1918175428056395 -0.5208598463656400  2.0961608010978803   F   F   F
  6.1072439214550407 -3.1887965772210203 10.6636051326980397   T   T   T
  1.6740072907131798  4.6260922653575500 10.7383510180513202   T   T   T
  2.4299382211687104  5.8210111888137899  6.3776593660814607   T   T   T
  2.4218410230156699  8.3546096967940997  6.5409120606492008   T   T   T
  1.7358597256942101  7.0769221144304302 10.6978394061240998   T   T   T
  4.0361485249533500  3.3204761527429598  4.3010967390088801   F   F   F
  3.1415898826463495  1.9269449209921705  2.1250687144858200   F   F   F
  6.1483018121045898 -0.6086840728932901 10.7264607633855800   T   T   T
  4.5944012641277592  4.5978335754414097  6.3340797266627407   T   T   T
  7.6491089252840894  2.1354110730519098  2.1866903189069999   F   F   F
  2.4824626675380497  3.3135796367433805  6.3299045017523206   T   T   T
  0.1737187810063500  4.6485678439615405  6.3655615649656410   T   T   T
  6.1190406726621909  4.6649460332452595 10.7056323888477998   T   T   T
  5.3929824437726896  5.9787372719858904  8.6504638483262806   T   T   T
  5.3788437067923400 -1.7677079675184204  2.0849515216360399   F   F   F
  7.7546310441035908 -0.6136620680048999  8.4001203457179212   T   T   T
  5.4966166840644899  3.2370777690465697  2.1570100802291803   F   F   F
  8.3225940363898303  3.2359568187135501  4.1931240151404001   F   F   F
  0.8002155748996299  8.5093730748971197  2.1871078873244003   F   F   F
  3.9911361663018701  5.8402186231923299  4.3195969426092402   F   F   F
  6.2005581273662207  2.0835775340475804  4.1660448789768596   F   F   F
  1.6858347970057999  4.6144003526486701  4.3667504090568805   F   F   F
  3.9959566544934200  5.8942080003426511 10.6246783004626000   T   T   T
  7.7253325365893497  2.0009785767111601  8.4837941026446408   T   T   T
  8.3950433173004715  0.7783910615432897  4.3239354610956804   F   F   F
  6.1115291157488691  4.5780337078787801  4.2484466087747803   F   F   F
  4.5297548244344599  2.0678207817859700  6.4654399701807401   T   T   T
  6.9497201343648385  0.6917703368420900  6.4441387968958201   T   T   T
  0.9474452781353200  3.1973694537630801  2.0442033043096801   F   F   F
  6.1717230397611402  2.0571553005246903 10.7398523723666202   T   T   T
  5.3407797687023093  0.7082166074155800  2.1419765822855399   F   F   F
  0.9528064340047000  3.3133662279986602  8.6059918318796402   T   T   T
  7.7212296936724698  4.5635070026837399  2.1376062867057799   F   F   F
  7.5290456262699603 -3.0125631991445103  8.5903882341309590   T   T   T
  0.9300369094916999  8.4160976018328011  8.6714832236710802   T   T   T
  2.4390617332383799  0.7474513562376200  6.5024578902178005   T   T   T
  8.3458548342141192 -1.7799087242168503  4.3036154357693199   F   F   F
  5.4550720733919409  5.8041334138364897  2.1824421521002200   F   F   F
  6.2159801102689505 -0.5417943876518303  4.3751526608642202   F   F   F
  0.1514993887000200  7.0956707051206998  6.4023924092216609   T   T   T
  5.3954916105938100 -1.9499549843303403  8.5951116258166191   T   T   T
