Pt Pd Ni Co Fe 
 1.0000000000000000
     8.9376460000000009   -5.1802149999999996   -0.0567110000000000
     0.0080190000000000   10.3804099999999995    0.0354720000000000
    -0.0291720000000000    0.0284160000000000   22.9142790000000005
 Pt  Pd  Ni  Co  Fe 
  15  14  16  18  17
Selective dynamics
Cartesian
  8.3337268746521005 -4.4603555423417793  4.2339768847038197   F   F   F
  8.3299650656480608  3.3199493097959207 10.7832306753075500   T   T   T
  8.2947049643307214 -4.4746593662321494 10.7266255256661509   T   T   T
  7.5150046232724801 -3.1312375214939792  2.0980498511863401   F   F   F
  6.0335082292614901 -0.5341902808626900 10.7392282408055699   T   T   T
  3.0754595328558705 -0.5820503327077199  2.1562755907001199   F   F   F
  8.3540220049485310 -1.8948442188220800 10.7931607806994503   T   T   T
  0.9106425480014202  0.6595026210069399  8.4433447215605497   T   T   T
  3.9273453699899803 -1.8545485155058496  4.3268648994573997   F   F   F
  0.9167742386383301  3.3258001979384502  8.5836752847947206   T   T   T
  3.0502985049068303  7.1795145069913797  8.5356371738220496   T   T   T
  5.3089045559634105  3.3718893075289293  8.5684119395583700   T   T   T
  3.0972154659914999  4.5996237613363800  2.1633015101550299   F   F   F
  4.4855748966605304  1.9446207495423207  6.4972399757594896   T   T   T
  6.0464234651778703  1.9159320838844400  4.2336468130348299   F   F   F
  3.8200092680141098  3.3222409013672398  4.4021767363972204   F   F   F
  7.5887142803249006  1.9690044766679098  8.5870640654825294   T   T   T
  0.1515660251215700  4.5502176938979888  6.4219417982294305   T   T   T
  3.1286732139106999  7.1620609537549704  2.1560415944734999   F   F   F
  3.7978948512045005 -1.9155996691620898 10.7720532274569294   T   T   T
  8.3734107535165609  0.7214378047335903 10.8508671523697799   T   T   T
  6.8805597170338810  5.8782196225667098  6.5018424428756996   T   T   T
  0.2510462462230200  7.2112362390469302  6.5390242020497711   T   T   T
  3.1206311981968704  2.0113212636959203  2.1859074593928800   F   F   F
  8.3403830464390118  3.2959840666310591  4.2355448397718405   F   F   F
  7.5653767577320608  1.9814896606940708  2.0766831818404903   F   F   F
  1.6752585700066103  7.0852331542172298  4.3141000504033098   F   F   F
  4.6371124722710810  7.2185330992639996  6.4791839399002900   T   T   T
  6.7849833904490406  0.6080319794537304  6.4558560218556602   T   T   T
  1.7033070368875700  1.9946703079640602 10.7156837459638101   T   T   T
  0.8429652863222500  3.2863730311018498  2.2373418441625299   F   F   F
  0.8550881571027001  8.5107784425447406  2.1954772580292903   F   F   F
  6.0548664308389197 -3.2127857071181998 10.6445798324041796   T   T   T
  1.6144648675411304  7.1734751911126606 10.6767550385274692   T   T   T
  6.0644671755094004  4.6615249313744505  4.2731032725083500   F   F   F
  1.6104603492565601  2.0155014767399497  4.2743614646413901   F   F   F
  1.6457201403780504 -0.5672949814626499 10.6519347298888700   T   T   T
  8.3276161156057302  0.5908473487164200  4.2528420154919804   F   F   F
  3.8878133217418407  5.7861374899115603 10.6549735055085204   T   T   T
  3.1434761383963106 -0.5705426524545900  8.4876041071655308   T   T   T
  5.3808557733503495  5.8449328336539006  2.2188757205447498   F   F   F
  3.1250120392677605  4.6548633022677599  8.5292333599509007   T   T   T
  1.7163711893613600  4.5969422345923991 10.7257754625363297   T   T   T
  4.5470683790674711 -0.5986998978020299  6.4736884299703101   T   T   T
  0.8396330268446102  0.6684220169629300  2.1832717918296902   F   F   F
  5.2325418163171911  0.7113027945079502  8.6519918783644609   T   T   T
  3.1262387893403800  1.9858371125463798  8.6345980978633587   T   T   T
  2.3372534471050499  8.6285035627616384  6.4993137353999701   T   T   T
  0.1854079819039200  9.7770873242364296  6.4146793301752494   T   T   T
  5.9205661939642393  2.1084222685169101 10.6983515947525696   T   T   T
  7.4511928700243608 -0.7210713641713301  8.5606675859261596   T   T   T
  2.4839512038807201  5.7465080576114600  6.3819220552453100   T   T   T
  2.3143786161642002  0.6364240710118302  6.3191450920739696   T   T   T
  3.9947197799280403  5.8539135618287501  4.3385735311132603   F   F   F
  6.1661919151497706 -0.6532118325858697  4.1811007414913801   F   F   F
  1.6597606043087001 -0.5634314424072200  4.2860261932468697   F   F   F
  6.0829179234943496  4.6346893733999606 10.6504510718466907   T   T   T
  8.3103515294115518 -1.8278255804114898  4.2217286499977300   F   F   F
  5.4407113662266706  0.5646065408750003  2.1113094655619102   F   F   F
  0.8094628700080901  5.7946522599292507  2.2494773746334502   F   F   F
  6.0758083271593106 -3.2001473995073595  4.2338813288452402   F   F   F
  2.3468098862012399  3.3045690941531491  6.4923831838118700   T   T   T
  7.5650777996228298  4.6062372588198803  8.5754696088050597   T   T   T
  6.8566876763262607 -1.9218027842453698  6.3197167069038001   T   T   T
  3.8563337233254105  0.6571027791387798  4.2950415303689198   F   F   F
  1.5037864484755401  4.5139527300030107  4.2827992189484902   F   F   F
  0.9002017356591702  5.8468886373446098  8.7002771088646007   T   T   T
  3.7787117578145706  0.7199941389055702 10.5744401262499199   T   T   T
  0.2743121379092700  1.9850241093393799  6.3547335451476599   T   T   T
  5.3758568857964004 -1.8326344286098097  2.1546246160842801   F   F   F
  6.8699496284381008  3.3213318018153406  6.4167845931361400   T   T   T
  5.4112921303445205  5.9434129644130493  8.7021647030235396   T   T   T
  4.5457456273281212  4.6436157689723894  6.4276262994077005   T   T   T
  5.4105604284308404  3.3696859376349799  2.1574688794786501   F   F   F
  5.3791124174957803 -1.7849479860510900  8.5671300810262601   T   T   T
  7.5456081263647796  4.6318978636938999  2.1219130690947599   F   F   F
  0.8965344335336700  8.5568651083874094  8.6460152416909803   T   T   T
  7.5861353904826210 -3.1490326551545298  8.5754704238358901   T   T   T
  3.8003157135705905  3.3187673087018492 10.6361260859890496   T   T   T
  7.6477318939468413 -0.5608342282048002  2.1142275382097000   F   F   F
