Pt Pd Ni Co Fe 
 1.0000000000000000
     8.9376460000000009   -5.1802149999999996   -0.0567110000000000
     0.0080190000000000   10.3804099999999995    0.0354720000000000
    -0.0291720000000000    0.0284160000000000   22.9142790000000005
 Pt  Pd  Ni  Co  Fe 
  15  14  16  18  17
Selective dynamics
Cartesian
  8.3337268746521005 -4.4603555423417793  4.2339768847038197   F   F   F
  8.3224160783860608  3.3193461960712298 10.7789665353987409   T   T   T
  8.2787855622275419 -4.4813719337653097 10.7122542630907205   T   T   T
  7.5150046232724801 -3.1312375214939792  2.0980498511863401   F   F   F
  6.0360238721246899 -0.5401639396453198 10.7136080205008302   T   T   T
  3.0754595328558705 -0.5820503327077199  2.1562755907001199   F   F   F
  8.3372233188728906 -1.8866204440042997 10.7763614780669599   T   T   T
  0.9146919928376801  0.6749869983254699  8.4761775944839908   T   T   T
  3.9273453699899803 -1.8545485155058496  4.3268648994573997   F   F   F
  0.9233879771415001  3.3369356697849795  8.5829588330968214   T   T   T
  3.0556542206398101  7.1903282223474392  8.5406428538525301   T   T   T
  5.3049320590010209  3.3686535347147211  8.6110850880063392   T   T   T
  3.0972154659914999  4.5996237613363800  2.1633015101550299   F   F   F
  4.5082019844654599  1.9543709546845303  6.5113838477310901   T   T   T
  6.0464234651778703  1.9159320838844400  4.2336468130348299   F   F   F
  3.8200092680141098  3.3222409013672398  4.4021767363972204   F   F   F
  7.5931492528158699  1.9907972617926801  8.5512019390022811   T   T   T
  0.1604961814596000  4.5517697251314999  6.4122879114100799   T   T   T
  3.1286732139106999  7.1620609537549704  2.1560415944734999   F   F   F
  3.8022101543244506 -1.9114899217175798 10.7717530969097908   T   T   T
  8.3800949274905818  0.7257938493062898 10.8417548665940497   T   T   T
  6.8650623459047520  5.9017414506911798  6.4784754202582606   T   T   T
  0.2336986199262800  7.2298374397238900  6.5058959692870095   T   T   T
  3.1206311981968704  2.0113212636959203  2.1859074593928800   F   F   F
  8.3403830464390118  3.2959840666310591  4.2355448397718405   F   F   F
  7.5653767577320608  1.9814896606940708  2.0766831818404903   F   F   F
  1.6752585700066103  7.0852331542172298  4.3141000504033098   F   F   F
  4.6207007957218105  7.2123745906289898  6.4765510074658108   T   T   T
  6.7933533296008211  0.6100335458444897  6.4195467599804692   T   T   T
  1.6852648463723201  2.0089337669893204 10.7147058726986497   T   T   T
  0.8429652863222500  3.2863730311018498  2.2373418441625299   F   F   F
  0.8550881571027001  8.5107784425447406  2.1954772580292903   F   F   F
  6.0346420867453503 -3.2356343388815199 10.6155344289005402   T   T   T
  1.6220802239290100  7.1908684431138497 10.6741150310729012   T   T   T
  6.0644671755094004  4.6615249313744505  4.2731032725083500   F   F   F
  1.6104603492565601  2.0155014767399497  4.2743614646413901   F   F   F
  1.6390543428938502 -0.5704084092013498 10.6639440853452694   T   T   T
  8.3276161156057302  0.5908473487164200  4.2528420154919804   F   F   F
  3.8319126874573000  5.8095293476795797 10.6634105724462707   T   T   T
  3.1670066992708805 -0.5763959935251901  8.4823269135703807   T   T   T
  5.3808557733503495  5.8449328336539006  2.2188757205447498   F   F   F
  3.1308898482276906  4.6568295854284703  8.5774155315981915   T   T   T
  1.7039176739730901  4.5948187875085598 10.7395116145743010   T   T   T
  4.5548170870080309 -0.6081729386306701  6.4744324629023104   T   T   T
  0.8396330268446102  0.6684220169629300  2.1832717918296902   F   F   F
  5.2557720517934907  0.6893973555264904  8.6275745966894313   T   T   T
  3.1389221603948401  1.9844572995014300  8.6378411061611402   T   T   T
  2.3432071642098204  8.6399450626403098  6.4967816048556202   T   T   T
  0.1964648021195500  9.8046746367105690  6.4329063852494501   T   T   T
  5.9772555355231303  2.0689744229503799 10.6932025347670905   T   T   T
  7.4734943855222404 -0.7009469745890093  8.5366485727662589   T   T   T
  2.4687701724466202  5.7763508636671403  6.4124601937235699   T   T   T
  2.3214138734291305  0.6455977088166002  6.3485243465473999   T   T   T
  3.9947197799280403  5.8539135618287501  4.3385735311132603   F   F   F
  6.1661919151497706 -0.6532118325858697  4.1811007414913801   F   F   F
  1.6597606043087001 -0.5634314424072200  4.2860261932468697   F   F   F
  6.0664980970392612  4.6248110556771502 10.6861956580431290   T   T   T
  8.3103515294115518 -1.8278255804114898  4.2217286499977300   F   F   F
  5.4407113662266706  0.5646065408750003  2.1113094655619102   F   F   F
  0.8094628700080901  5.7946522599292507  2.2494773746334502   F   F   F
  6.0758083271593106 -3.2001473995073595  4.2338813288452402   F   F   F
  2.3597187570936207  3.3248305322525398  6.4863695474420293   T   T   T
  7.5750509796581911  4.6262782562707994  8.5407459458094213   T   T   T
  6.8419696108789303 -1.9090861225777394  6.3459413958264710   T   T   T
  3.8563337233254105  0.6571027791387798  4.2950415303689198   F   F   F
  1.5037864484755401  4.5139527300030107  4.2827992189484902   F   F   F
  0.9123484836286101  5.8420259741039295  8.6786870621994208   T   T   T
  3.7750808066752306  0.7495276992828598 10.5688958422434709   T   T   T
  0.2659448269433800  1.9925979293190199  6.3685705102355801   T   T   T
  5.3758568857964004 -1.8326344286098097  2.1546246160842801   F   F   F
  6.8639170606057904  3.3627410631893704  6.4198094788780296   T   T   T
  5.3995399461937108  5.9201046995423692  8.7280055259533906   T   T   T
  4.5170944260047401  4.6357351217330098  6.4405039642567203   T   T   T
  5.4105604284308404  3.3696859376349799  2.1574688794786501   F   F   F
  5.4157420843136812 -1.8022720492836100  8.5364532013440400   T   T   T
  7.5456081263647796  4.6318978636938999  2.1219130690947599   F   F   F
  0.8987049308257301  8.5680711672660195  8.6227292824363602   T   T   T
  7.5784662813993204 -3.1460543391122098  8.5579784012562499   T   T   T
  3.7672699079233705  3.3166565094903695 10.6739880445626802   T   T   T
  7.6477318939468413 -0.5608342282048002  2.1142275382097000   F   F   F
