Pt Pd Ni Co Fe 
 1.0000000000000000
     8.9788379999999997   -5.2082129999999998   -0.0213960000000000
    -0.0412480000000000   10.3512199999999996    0.0130200000000000
     0.0054110000000000    0.0005430000000000   22.9185650000000010
 Pt  Pd  Ni  Co  Fe 
  14  17  16  18  15
Selective dynamics
Cartesian
  7.6990727384153095  4.5607197333956000  8.5961198319721905   T   T   T
  3.8363046107189303  3.3910384559032001 10.8277403996839308   T   T   T
  3.0564720208915799  4.5894933277715797  8.5275660475163004   T   T   T
  3.1575829917892899  7.1873258518306296  8.6315229859533904   T   T   T
  0.0395775857178800  7.1266505151351298  6.4079265532722207   T   T   T
  6.8848049076272098 -1.8772911306803002  6.4011122534329701   T   T   T
  7.6009129494894196  4.6132075798908501  2.1552218073080400   F   F   F
  2.3615266203461198  8.4447333083419291  6.4743149586337809   T   T   T
  3.2118574091799204  7.1291979565156893  2.1541807410250602   F   F   F
  4.7050669236543197  1.9732694155600998  6.3368838027459606   T   T   T
  7.5582525043471298  1.9924428401966296  2.1785904164812702   F   F   F
  0.9157907676676700  5.8182674441230500  2.2292015144041701   F   F   F
  3.8992219582130900  3.3433551464980402  4.2189838639331700   F   F   F
  8.5026470864436892  0.6590398592435501 10.7341460376777516   T   T   T
  6.1302982968782391 -0.6522054845728600 10.7750254365574012   T   T   T
  0.1270002325602000  2.0125482931004002  6.4594589399286404   T   T   T
  7.6414063959758094 -3.1317607717546698  8.6364538964878701   T   T   T
  3.1466441412764499  1.9473228138803205  2.1664615543788899   F   F   F
  7.5878973979283693  1.8706447346394501  8.5262671474798299   T   T   T
  6.1398611000198295  2.0256099950638400 10.8031632912116695   T   T   T
  4.6640606975218297 -0.6227583763204798  6.4310504260387908   T   T   T
  1.6060573262232098  1.9518764454873201  4.2838041007964902   F   F   F
  6.7713469496255492  5.7834792505043913  6.3479493389837298   T   T   T
  5.3886967030272697  3.2792904601784998  8.5111848980794296   T   T   T
  7.5778232812093202 -0.7120675053215602  2.2097767403574804   F   F   F
  2.3330635945891496  0.6657326698462800  6.4317684701624707   T   T   T
  6.0992265655847602 -3.2653226790351098 10.8538242097135811   T   T   T
  3.1814502036198502 -0.6293723882927499  2.1491083189296298   F   F   F
  3.7712278971341799  0.6021922230669797 10.8168463051581796   T   T   T
  1.6285037957867998  7.1735624794022401  4.4164558931425200   F   F   F
  3.0568411906664896  1.8813188768755000  8.5969055703622903   T   T   T
  5.3806779675422405  0.6626019246464702  2.2360097222765400   F   F   F
  1.5885911488442499  4.5844665209631597 10.6397081371114908   T   T   T
  5.4346789406024598 -1.9706230782870600  2.1245341666486999   F   F   F
  3.9112373223580601  5.8733577496507587  4.2389657535399001   F   F   F
  2.3534721420108102  3.3725564695010104  6.4093014152008303   T   T   T
  5.3386148297396305  5.8742523137764202  8.6067675159110308   T   T   T
  0.9456509116260601  0.6055899742601900  8.6581778134342002   T   T   T
  3.9126539160597096  0.6116308844049601  4.2794181412363903   F   F   F
  1.5203509416230701  1.9588470451316602 10.7107385445886294   T   T   T
  8.3397206931362486 -4.5234432934256388  4.2202297694188902   F   F   F
  0.8403565851943899  3.2118160218449998  2.2117388787444701   F   F   F
  7.6579712017443002 -0.6423875252345501  8.5314271826261212   T   T   T
  2.3861991024708500  5.7728771340154887  6.4275610323917505   T   T   T
  1.6535418459916298 -0.6262523938456900  4.2691329113219307   F   F   F
  3.1377047227881198  4.5616972532853000  2.1519826502706798   F   F   F
  6.8693761076622586  3.2551801582375401  6.3152429674043802   T   T   T
  0.8948520055937601  8.4689228491310899  8.6973187209821408   T   T   T
  6.1398893831714600  4.5445905141834801  4.2460712249242203   F   F   F
  8.4120158104429308 -1.9248988057181595 10.6988144301387305   T   T   T
  1.5695747333478898  4.5429017749520391  4.3668567168710100   F   F   F
  3.8502861346118400  5.8938438932077508 10.7011427270868609   T   T   T
  5.4006779845781603  0.5349992489210896  8.5620994603651805   T   T   T
  8.3098294592862096 -1.9267845462439099  4.3023686438286299   F   F   F
  8.2736709251013796  3.2331483962339900  4.3164912169118397   F   F   F
  1.6406221395440199 -0.6997051891487499 10.6763398816320798   T   T   T
  5.3444390464836600  3.3720084525468805  2.1064798581237403   F   F   F
  0.1652121150920900  4.5687656230635900  6.4405561924073904   T   T   T
  4.5674850021009599  7.0700288445180997  6.3781345104168805   T   T   T
  3.8424001574032900 -1.9652964226830003 10.7475174837864103   T   T   T
  6.1539241217948408  4.6020321298153606 10.7242475532461601   T   T   T
  5.3497964444922799  5.8042587160604802  2.1768357338723199   F   F   F
  7.5947373436527492 -3.2104239970961892  2.2386521130934902   F   F   F
  0.0836598278636000  9.6978123273736205  6.3515597631873195   T   T   T
  5.3451086039566693 -1.8676603134344194  8.6203771970967900   T   T   T
  3.1029173821509302 -0.6288716967306699  8.6835122635291899   T   T   T
  4.5567357745093400  4.6159164658549789  6.3798079592310204   T   T   T
  0.8472923965872800  3.2911354283153895  8.5895043009995398   T   T   T
  3.9168476420779297 -1.8956478022700698  4.2550945243283502   F   F   F
  0.8955600578920400  0.6302141179633400  2.1746584184948401   F   F   F
  8.4005540600828894  0.5972304914798602  4.3202537573103301   F   F   F
  0.8375500902962499  5.8219876217520508  8.5536615790707504   T   T   T
  6.1333675015952505  2.0270191112707194  4.2554068076356906   F   F   F
  6.8778454249147396  0.6633079355833300  6.3749537954043998   T   T   T
  6.1766593521010593 -3.2632444910199094  4.1695804740393196   F   F   F
  8.4049911054100903  3.3161332582438905 10.6824344670800713   T   T   T
  8.4357030692268591 -4.5241329205572089 10.7649165086049994   T   T   T
  0.8864008493122700  8.4740832171745311  2.2039772637182500   F   F   F
  1.6696211004281798  7.1758342430913604 10.7228196945758203   T   T   T
  6.0545899712657496 -0.6603838256964599  4.2317364992277104   F   F   F
