Pt Pd Ni Co Fe 
 1.0000000000000000
     8.9564489999999992   -5.1570619999999998   -0.0271120000000000
     0.0040050000000000   10.3273039999999998    0.0160500000000000
    -0.0007110000000000    0.0043940000000000   22.9221719999999998
 Pt  Pd  Ni  Co  Fe 
  14  14  18  17  17
Selective dynamics
Cartesian
  3.8596920069563998 -1.8829275351214199 10.6836802682620604   T   T   T
  0.1234868140459800  7.2285416956818205  6.4198246935838608   T   T   T
  6.8675456334847489  0.6647285650103598  6.4501456156656598   T   T   T
  0.9580514322274200  0.6704696559045800  8.5846034326869791   T   T   T
  6.0875292479593499  1.9736890089789796 10.7777496382908797   T   T   T
  5.3693294947036199 -1.9282660622261796  2.1660517766565799   F   F   F
  3.0421308330557100  4.4806659455077797  8.5320227701838398   T   T   T
  6.1612119090185393 -0.6128715843610005 10.7747097997283596   T   T   T
  4.7021022273411006  7.2836709709804595  6.4438521470980605   T   T   T
  3.0932895416499897 -0.5624341614634399  2.2287870936206602   F   F   F
  7.5941743933352690 -3.1380610684894998  8.5714102196576789   T   T   T
  2.4351050385144899  8.4659995891498596  6.4556924856518796   T   T   T
  2.3883516925296298  0.7594616904503999  6.3627030785890204   T   T   T
  3.8809372408981195  3.3465316861107799  4.2494234849108601   F   F   F
  7.6712127001193702 -3.2311567095729394  2.2168095083451198   F   F   F
  6.1686038603382292  4.6088133446891408 10.7847759159990790   T   T   T
  5.4006020397697503  3.2841272871212004  2.1274969764408600   F   F   F
  7.6488536375980187  1.9747082015441806  2.1334775190525801   F   F   F
  8.4511381616173793 -1.8565402960131596  4.3013317295692000   F   F   F
  7.6497786381122994  2.0160743503685197  8.5720079681484798   T   T   T
  5.4498020483992500  5.8498357971492005  8.5868460905272190   T   T   T
  6.0927736364864096 -3.2870185415741799  4.3743477350891595   F   F   F
  2.3356595861319600  5.8045613470754791  6.3659262157013607   T   T   T
  1.5900424519182301 -0.6226402254361599 10.7616456648635808   T   T   T
  4.7080476699427800  4.4699267111190597  6.3402408159503798   T   T   T
  3.8385860080672796  5.8757851681559607 10.7934631461432797   T   T   T
  6.0917418536803192 -0.5683981391728999  4.2754380865164201   F   F   F
  0.9559215529310700  5.8569386235745995  2.1763371181949402   F   F   F
  6.1556298992491492  1.9978116932937409  4.2542864562780798   F   F   F
  0.8429758128019799  8.4817262384220999  8.6316520976355005   T   T   T
  3.1303599903834294  4.6015094344370002  2.1420667333536998   F   F   F
  1.5873575352163196 -0.6628704536719999  4.3151681183353601   F   F   F
  0.9884434479041699  3.2618927771017603  2.2320193319967401   F   F   F
  0.0656433253272600  9.7889432284736184  6.4247343485159005   T   T   T
  5.3415004634656196  0.6876802982924597  8.6153578117471010   T   T   T
  5.3260739269937103  5.8180302331574003  2.2097667353720603   F   F   F
  7.6688485531845298 -0.6969042578427398  8.5905778439854004   T   T   T
  0.9208959104599199  0.6747199091916599  2.2585246231964997   F   F   F
  5.3662392459395090  0.6882510267170003  2.1560981193743798   F   F   F
  0.0958590548600400  1.9902077726073000  6.4158263609595805   T   T   T
  3.7893428024765399 -1.9102393397676998  4.3424106188118197   F   F   F
  3.0975682023164701 -0.6262153185626400  8.5694705115453793   T   T   T
  0.9247360199309999  5.8400455274508802  8.6071742971209986   T   T   T
  5.3616662089810196  3.2677580370283197  8.5759364587496396   T   T   T
  5.3559143824971605 -1.9222302648218799  8.5258069311384794   T   T   T
  4.6580934401624701 -0.6029511461094199  6.4337985314634398   T   T   T
  8.4069254763655188 -1.8683645181486193 10.7104230043306199   T   T   T
  1.6521027000339596  7.1819873651965001  4.2742535782082198   F   F   F
  3.7912744547100896  5.8979717600997406  4.1990102978886403   F   F   F
  3.0809155359189595  2.0108488379574401  8.6068959383310801   T   T   T
  3.8438924265475194  0.7504171069715401  4.2273653455880993   F   F   F
  3.0968195637329998  7.1724321255706585  8.5981824140102603   T   T   T
  1.6581680251920901  4.6292687508561601  4.2740832305989800   F   F   F
  8.4502500804850484 -4.5578746338462199  4.3789318155940000   F   F   F
  3.0699055733551197  1.9786570578329603  2.1931312883990399   F   F   F
  1.6612038669909601  1.9427826497087797  4.2073830777046997   F   F   F
  8.3741952354417908 -4.4770391823507403 10.6611644333904394   T   T   T
  0.9147212472546000  8.4393838875694787  2.2862811138371599   F   F   F
  6.9057805045654801 -1.9309882373552603  6.4486563586390995   T   T   T
  1.6240258786330797  4.4983038184596804 10.6811835172354392   T   T   T
  1.6492006633493699  7.1169569737854204 10.6961415816719594   T   T   T
  8.3923288592565601  3.3489450821713596  4.2310546945894005   F   F   F
  2.2917016321403403  3.2530328174206602  6.4302332299904199   T   T   T
  8.4052581362446492  3.2891653951786197 10.7548256154329991   T   T   T
  3.1409427857448593  7.1305459869373404  2.2729584031380199   F   F   F
  1.6042134306660301  2.0093545861282203 10.7546153779995599   T   T   T
  7.6179755986019089  4.5470125710323792  8.6059799364952401   T   T   T
  6.2264964365041493  4.5345721194653787  4.2304181658555997   F   F   F
  6.9395080028223601  5.8543257306382399  6.4581051447482398   T   T   T
  0.9274179930066900  3.2870951156244796  8.6506912766175805   T   T   T
  6.8911329690118794  3.3841937030399603  6.3890393765707190   T   T   T
  7.5966801129809998 -0.6305575224173000  2.0734970939818598   F   F   F
  6.1565875674938093 -3.1536532276060796 10.6957686722260998   T   T   T
  3.7890026020399499  3.2772876816509400 10.6779397570591197   T   T   T
  8.4164894230572003  0.7786519783995205  4.2946841770678805   F   F   F
  0.1822387531126499  4.5194408133875603  6.4653267966525396   T   T   T
  7.6667828831315088  4.5701741828733411  2.1686339270022801   F   F   F
  8.3642438897196296  0.6775437388309198 10.7363226397568194   T   T   T
  4.6016514312770704  1.9624914506902802  6.4346746106375008   T   T   T
  3.8051982513431097  0.7613141767262001 10.6917473572461397   T   T   T
