Pt Pd Ni Co Fe 
 1.0000000000000000
     8.9674209999999999   -5.1014980000000003   -0.0417960000000000
     0.0607130000000000   10.3143170000000008    0.0324100000000000
    -0.0101430000000000    0.0251350000000000   22.9479520000000008
 Pt  Pd  Ni  Co  Fe 
  16  16  17  17  14
Selective dynamics
Cartesian
  4.0284555656300496 -1.8424350387328101  4.2936683678399001   F   F   F
  3.9491537047677401 -1.9987873917663099 10.7983133811703809   T   T   T
  1.6457450420497401  2.0759565403006599 10.8264378101143812   T   T   T
  0.9224693963279700  5.8588950071633104  8.5022740809601203   T   T   T
  8.3659312149975396  3.2879952574619300 10.8339195853664396   T   T   T
  3.1211011394837298 -0.6774849321761001  8.5335973420700402   T   T   T
  3.2802238921456297  7.1735324873632909  2.1902359007509999   F   F   F
  6.8569957194605795  3.1904196812998000  6.3215155060952597   T   T   T
  1.6575393604771800  2.1031493612146401  4.1950909539355399   F   F   F
  4.7029476701758002 -0.5921730419879898  6.4654342746864799   T   T   T
  3.2526545530511299  4.4349708494899405  2.2158658700397402   F   F   F
  7.5980331885796391 -3.1235183767655901  2.0674907016469199   F   F   F
  8.3549981683068282  0.7278421817363203 10.7522657324612201   T   T   T
  8.2956203472578505 -1.7935496495655407 10.7510585629358406   T   T   T
  5.5177447911203910  0.6834977907803399  8.5808641217042609   T   T   T
  0.2592260855716000  9.6338387980245219  6.4319118472494603   T   T   T
  0.9294041311859200  0.8074394567575601  8.5642977717214990   T   T   T
  3.1705319477721394  4.6142296202703905  8.5449677640860209   T   T   T
  8.3001918040758209 -4.4535587580797200  4.2024242376607601   F   F   F
  6.7828163744833896  5.9554834524612108  6.4323262027125203   T   T   T
  1.6310345127843699 -0.6498282260022901 10.8674649619988202   T   T   T
  1.6727192849411301 -0.5728493003180800  4.2140813762449598   F   F   F
  7.6680295147918196  4.6528066384104498  8.5777625853771795   T   T   T
  5.4225023337959595  3.3430839967843404  8.5781221884278196   T   T   T
  7.5894853884197104 -0.5101626743790598  2.2127306223028200   F   F   F
  4.0178656142457996  0.8028478270733999  4.2981152379914800   F   F   F
  3.9533158660596301  3.3909911551966405 10.9026236941338812   T   T   T
  3.9677838103267598  0.7079927823504898 10.8718768511240214   T   T   T
  0.1432304952241900  2.1225994782679600  6.4474764143495609   T   T   T
  1.6628506147300199  7.1463502474333112  4.3753436063468003   F   F   F
  0.8931688287455399  5.8297374741992707  2.2227248001540003   F   F   F
  8.2654924290145395 -4.4086088507952601 10.8502079412024806   T   T   T
  4.6177839553352298  7.1266350062625508  6.5434697767094203   T   T   T
  6.1474694940183703 -3.1249095376440001  4.2399973822395998   F   F   F
  6.9093172632409701 -1.8176930546860197  6.4440878363220797   T   T   T
  0.9306385556903299  0.6731378202530500  2.0372361471813600   F   F   F
  3.1806327540880002  2.0123486899066001  8.5147602396366207   T   T   T
  3.1976467977840302  7.1154878086247102  8.6033608325657998   T   T   T
  3.1918175428056395 -0.5208598463656400  2.0961608010978803   F   F   F
  6.0844559637473496 -3.1560546931297204 10.6730679310205812   T   T   T
  1.6519349736857902  4.6191884035719495 10.7598231779901408   T   T   T
  2.4436355423429403  5.8234566729300710  6.4228498051325795   T   T   T
  2.4299424486453494  8.3574483964037896  6.5435781365218606   T   T   T
  1.7222422745448001  7.1001041956247608 10.7012636988265406   T   T   T
  4.0361485249533500  3.3204761527429598  4.3010967390088801   F   F   F
  3.1415898826463495  1.9269449209921705  2.1250687144858200   F   F   F
  6.1443365984620302 -0.5736955107200099 10.7156335459735601   T   T   T
  4.6068993999491106  4.5812025317253404  6.3802244173124807   T   T   T
  7.6491089252840894  2.1354110730519098  2.1866903189069999   F   F   F
  2.4652271223240501  3.2683576080953300  6.4230728705167000   T   T   T
  0.1433306357174000  4.6487440582432695  6.3679134075633996   T   T   T
  6.1190756802865103  4.6362745059047814 10.7342678231965198   T   T   T
  5.4065034958464606  5.9856628637278000  8.6943040074893805   T   T   T
  5.3788437067923400 -1.7677079675184204  2.0849515216360399   F   F   F
  7.7113324354661001 -0.6091356485717603  8.4630840975160204   T   T   T
  5.4966166840644899  3.2370777690465697  2.1570100802291803   F   F   F
  8.3225940363898303  3.2359568187135501  4.1931240151404001   F   F   F
  0.8002155748996299  8.5093730748971197  2.1871078873244003   F   F   F
  3.9911361663018701  5.8402186231923299  4.3195969426092402   F   F   F
  6.2005581273662207  2.0835775340475804  4.1660448789768596   F   F   F
  1.6858347970057999  4.6144003526486701  4.3667504090568805   F   F   F
  4.0289990557454098  5.8943975885601905 10.7171880040886407   T   T   T
  7.7255272682561591  1.9703065936085100  8.5344749491882403   T   T   T
  8.3950433173004715  0.7783910615432897  4.3239354610956804   F   F   F
  6.1115291157488691  4.5780337078787801  4.2484466087747803   F   F   F
  4.5787523429666894  2.0604284485982207  6.4558876522425006   T   T   T
  6.9424383518612300  0.6681616532556504  6.4180238901988007   T   T   T
  0.9474452781353200  3.1973694537630801  2.0442033043096801   F   F   F
  6.1838023789511301  2.0523866323548199 10.7488524278226389   T   T   T
  5.3407797687023093  0.7082166074155800  2.1419765822855399   F   F   F
  0.9212616325539900  3.3157240359592506  8.5818904254516006   T   T   T
  7.7212296936724698  4.5635070026837399  2.1376062867057799   F   F   F
  7.5363770406944992 -3.0460533309736602  8.5900147515570797   T   T   T
  0.9313383060993099  8.3824189443694213  8.6387949673675610   T   T   T
  2.4267014052380205  0.7671253073847099  6.4728627644238204   T   T   T
  8.3458548342141192 -1.7799087242168503  4.3036154357693199   F   F   F
  5.4550720733919409  5.8041334138364897  2.1824421521002200   F   F   F
  6.2159801102689505 -0.5417943876518303  4.3751526608642202   F   F   F
  0.1738554947103200  7.0877326191803904  6.4035262017356205   T   T   T
  5.4288386438692697 -1.9364281071848899  8.5967326786244396   T   T   T
