Pt Pd Ni Co Fe 
 1.0000000000000000
     8.9645670000000006   -5.0970750000000002   -0.0554420000000000
     0.0644260000000000   10.3118449999999999    0.0416760000000000
    -0.0230490000000000    0.0365270000000000   22.9434980000000017
 Pt  Pd  Ni  Co  Fe 
  15  16  18  14  17
Selective dynamics
Cartesian
  5.3870828187918800  5.9518448315948005  2.1903580643572802   F   F   F
  8.4300281476757188 -1.6980816743480502 10.7299302996326809   T   T   T
  6.1120353428655401 -3.0026972555339699 10.7807377060690008   T   T   T
  0.0964904070091400  2.0249496068340598  6.5423929972250798   T   T   T
  5.4932071097051303  5.9132475930396797  8.5818590617394612   T   T   T
  2.4869196047988007  3.2898935669394400  6.4602089028403604   T   T   T
  3.1108389734638497  4.5765727658316395  2.2200361440076199   F   F   F
  5.4736043491441704  3.2765891183954396  2.1412797793182201   F   F   F
  8.4160252499270118 -4.3475662563645603 10.8408029165462221   T   T   T
  3.1741216141344104  7.1967902910127295  8.6163685064928206   T   T   T
  1.7240972492627002  2.0090247608398597  4.2132858029558804   F   F   F
  8.3948903863178916  3.2125248473095698  4.2107817997867807   F   F   F
  8.3363933556863898 -4.4341334078142900  4.2143548522103407   F   F   F
  0.8329850825914901  8.3887259737541093  8.5673582577185012   T   T   T
  0.8751953975384601  0.6989956968599200  8.6567362967331203   T   T   T
  8.3884501883246614  3.3206167382167093 10.8516433592199206   T   T   T
  5.3198535968514600  0.7027058501848499  2.1030956998902401   F   F   F
  3.1904029462787098  2.0026857584293998  8.6434763649346618   T   T   T
  1.6759544313045802  7.0500317841506792 10.8942209472934017   T   T   T
  3.8403087929010002 -1.6959379851752601 10.8096581710345614   T   T   T
  8.4049067444106988 -1.7706763441735101  4.3305708301336807   F   F   F
  6.0639881709465504  4.6206222808292097 10.9039091651992202   T   T   T
  6.1027964217414796 -0.5341592115453601  4.3462863305578407   F   F   F
  4.7627635031965205  7.1853878610089099  6.4629727010938405   T   T   T
  2.3722281358955404  5.9033797536000998  6.4691011266202407   T   T   T
  6.0715605379722710  1.9732051035413600 10.8201404411861812   T   T   T
  5.4515964234635002  3.2652658474468494  8.5138044549803205   T   T   T
  7.6388748138537608 -3.0928996619441702  2.0820915662532800   F   F   F
  3.8907452164992300 -1.9529003018489701  4.2754445050562202   F   F   F
  1.7044892512269501 -0.6570281212761000  4.2506117364040605   F   F   F
  7.6604480056419799 -0.4703623935913703  2.1224154197492004   F   F   F
  3.1974184032509001 -0.5387925613796002  8.5225009544297201   T   T   T
  0.9436131066630500  3.2758924776550398  2.1555366363757802   F   F   F
  8.3942018998295609  0.7621013880276097 10.6270365506877216   T   T   T
  4.7572631004617500  4.5351109568956103  6.3840599165881802   T   T   T
  6.1169048187337811  4.5605297816928605  4.3095715048250405   F   F   F
  3.9000825506956098  5.8301186427116996  4.3561074636363006   F   F   F
  8.4479339068853321  0.7504322492784800  4.3213217414425804   F   F   F
  3.8617764776963002  5.8104302684308005 10.7289989739911196   T   T   T
  1.6820086118226902  7.0628998684053306  4.3576128834506207   F   F   F
  0.1354458861533400  9.6995148631668009  6.4733911360391208   T   T   T
  3.1105996429639799  4.6062272581573005  8.6686415211548820   T   T   T
  6.0966042464075896 -3.1676756101544696  4.2979834548116607   F   F   F
  3.1206443418142205  7.2933173037391104  2.1258434527795602   F   F   F
  1.6858563548105001 -0.4488043178242300 10.7819144668060805   T   T   T
  0.0878694626918300  7.1170353413835796  6.4666648880233799   T   T   T
  0.9476342752742800  0.6020212442032500  2.0803049053747200   F   F   F
  2.4113872461696699  8.5370162439232598  6.4946639370645807   T   T   T
  2.4535843024827400  0.6725787371435697  6.4306741387676398   T   T   T
  3.9110449744960003  0.7808161282998097  4.2608044967819607   F   F   F
  4.5675486441439404 -0.4691886538013701  6.4775841000971601   T   T   T
  0.0851511400724500  4.6291655795354094  6.5657849304503006   T   T   T
  1.7546396367650101  2.0347937846096400 10.7494260376975799   T   T   T
  7.6721967483678002  4.6211472907519102  8.5126622046760403   T   T   T
  0.8553895665257500  3.4260565286420697  8.6489769825825800   T   T   T
  6.9678242782300899  5.8062889187922897  6.4507251954692606   T   T   T
  3.8223176256891600  0.7261594916908495 10.6862758677990008   T   T   T
  1.7247297285037702  4.5693402822580698 10.6273939208128603   T   T   T
  6.0972358408770804 -0.4911925119198702 10.5815365327608006   T   T   T
  1.6838353074473402  4.6500639295675796  4.3384246163743603   F   F   F
  4.7301828925475702  1.8998414114500399  6.3528609031340197   T   T   T
  0.8270873291665100  5.7812858370030993  8.6246166629009409   T   T   T
  7.6356060852674812  1.9615440821197501  8.5536661640043601   T   T   T
  6.9552975088931195  3.3301989012956499  6.4412417821763199   T   T   T
  6.1475578831355504  1.9961974845924599  4.2959753701033803   F   F   F
  6.9222975798803112  0.7723046119965795  6.4863213285623003   T   T   T
  5.3950665189335307  0.6731036128157193  8.6156414811699005   T   T   T
  3.7343234889817603  3.3496477053381994 10.7637646746928812   T   T   T
  6.8562597201268698 -1.7816224050983902  6.4520958875127405   T   T   T
  7.7419376633189003  2.0091791796972998  2.0305414884455204   F   F   F
  0.9495897264283101  5.8730926849553207  2.2589322638409404   F   F   F
  3.9220389167086398  3.3200706070967394  4.2947413434796404   F   F   F
  7.6773177785012514 -0.4310591120729203  8.5923750485060211   T   T   T
  5.3968393115928004 -1.6848303008711802  8.5702482999953613   T   T   T
  5.3476260759139098 -1.8655597480013597  2.1358807246250202   F   F   F
  0.9082608755440802  8.3550907069620202  2.1285184107234403   F   F   F
  3.0772893685651601 -0.5668594718032401  2.0913831529290401   F   F   F
  7.6012999227118812 -3.0746955759893297  8.6038438009236007   T   T   T
  7.7483230520549302  4.6192245030598604  2.0849841662146202   F   F   F
  3.0990653512511206  1.9524236310853897  2.0779178670889604   F   F   F
