Pt Pd Ni Co Fe 
 1.0000000000000000
     8.9737360000000006   -5.1895480000000003    0.0044630000000000
    -0.0247690000000000   10.3424999999999994   -0.0160880000000000
     0.0218050000000000   -0.0357650000000000   22.9062790000000014
 Pt  Pd  Ni  Co  Fe 
  14  18  16  14  18
Selective dynamics
Cartesian
  4.6374874069291403  7.0603815705191995  6.5083628168400711   T   T   T
  3.8434341685613003  3.1618471165721593  4.1720377703352609   F   F   F
  2.3894160054763502  8.4794354959070777  6.4440536795493797   T   T   T
  1.6722542529444901  1.9561413859060697 10.8086722256146608   T   T   T
  6.1365959006594810  2.0238475654495796 10.7918624500054712   T   T   T
  6.8483352891168705  0.6356158294803396  6.5145866680359301   T   T   T
  8.3893042481001014  0.6189827366325290  4.2914068217444701   F   F   F
  7.5941178089244206  2.0238410498887092  2.1339270430715800   F   F   F
  3.8719303088988197  0.5884591043141996 10.8286978956034705   T   T   T
  8.3795815710902506 -1.9117866875940999 10.8027453687010002   T   T   T
  7.6606786963549105 -3.2386412630737911  8.5088404157245705   T   T   T
  1.7480051502392302  4.6725692510969301 10.9072649000394204   T   T   T
  0.0971068096519700  9.8576624825389292  6.4275137045839505   T   T   T
  3.1688520439902503  1.8763239081231793  8.4631005701652597   T   T   T
  3.0879940167717903  7.2065646842525091  2.0383573738187999   F   F   F
  5.3625414699077103 -1.9137033570933299  8.7208522620542404   T   T   T
  5.2911096639882409  0.6145995532517596  2.1562708040735301   F   F   F
  0.2003639276318400  4.4436668107921697  6.4775818620474404   T   T   T
  7.6274873027454309 -0.7448354201928007  2.1230267904965299   F   F   F
  0.1482232141151100  7.1403688041660995  6.4929360199977406   T   T   T
  3.1886188847812802  4.5610549617327498  8.5375736289259905   T   T   T
  6.7907253501397005  3.2972006175776998  6.5130757094292901   T   T   T
  4.6086900892868803 -0.5638073386177304  6.4634130736956212   T   T   T
  6.2336876798260006  4.5046113786599404  4.2346264934421400   F   F   F
  5.4439638787326610  5.8790764767157597  2.0884195399175400   F   F   F
  8.3241720120494911 -4.6679376183064702 10.8546808042997203   T   T   T
  3.8796880743561704  5.8898649734904707  4.2374955943543302   F   F   F
  0.8668634028517200  5.8237076971602901  8.6706168723973995   T   T   T
  6.1195083217544601 -0.6698783181421203 10.9675450099297809   T   T   T
  6.2200378730155998 -3.1225489654787699  4.2300273507578501   F   F   F
  0.8522821638744701  8.4982920068909902  8.6829005062853604   T   T   T
  1.6082730148560105  7.2612302910314996  4.1956368765854002   F   F   F
  6.1247579379391199  1.9315150185415597  4.2653890679709203   F   F   F
  4.5718072872256696  4.5176644146306506  6.4170586581097098   T   T   T
  1.6671408092771700 -0.6858402562785901 10.7707943349529121   T   T   T
  0.8463777091582401  0.6792340854452498  2.1292028348511503   F   F   F
  0.9306298231114501  5.7488227154250291  2.0877640377489102   F   F   F
  8.4015468280473709  3.2784073946180290  4.2870843177435898   F   F   F
  3.0827689248922399 -0.6059266449472802  2.1983222187270202   F   F   F
  7.5473099443073304  1.9457331170257890  8.6718634533539412   T   T   T
  6.9345041444453912 -1.9624405612131006  6.3731036639732404   T   T   T
  0.9156725612647801  3.1918679738926898  8.5566184268806396   T   T   T
  8.4531191738295224 -4.5097434252340207  4.2377395114023502   F   F   F
  0.8776715024073801  8.5643067950056189  2.0710513739012701   F   F   F
  4.5925653566825497  2.0081758517656296  6.3620712349002604   T   T   T
  6.0385342657641203  4.5404454136680696 10.6641709822281712   T   T   T
  5.3815532326014708  3.2322769510808684  8.6011487415961607   T   T   T
  3.0882547780026703  4.5345061658782804  2.1293810800148800   F   F   F
  6.0766268597464803 -0.5923327127837904  4.3040505004969196   F   F   F
  8.4288264638698713  3.1171157473001299 10.7282201275683402   T   T   T
  1.5906127408713102  1.9122433164412398  4.1969607746667004   F   F   F
  8.5164697856478497 -1.9732379051797901  4.2869801096066702   F   F   F
  3.1263670718721603  7.1746610517304887  8.7071759303327205   T   T   T
  7.5334795507646906  4.5090062028481288  8.6514303550719802   T   T   T
  5.3168120926736808  3.2260550955950298  2.0916868788170602   F   F   F
  3.9849578600048701  5.8694507052322198 10.6758910387572712   T   T   T
  3.9215052421491103 -1.7871002893979799  4.2926539765271201   F   F   F
  6.0585391278083405 -3.3620140644642200 10.7263392663627801   T   T   T
  7.5910647012827397 -0.5932573886204907  8.6803835654535710   T   T   T
  3.9471544472064704  3.3489127955957296 10.7218919371641110   T   T   T
  1.6940110090347600  7.1770213846260003 10.7076852102864102   T   T   T
  3.0754867689479299  1.9173441830332891  2.1953668739203005   F   F   F
  3.1075442866547700 -0.6763903604482602  8.6842981745297099   T   T   T
  6.8554790656237703  5.8660958170315789  6.4240873771681697   T   T   T
  2.3604808905039500  0.7867035921715999  6.3014420692768098   T   T   T
  1.5994919073465401 -0.5134685879653502  4.2105758266193805   F   F   F
  2.4158890254404000  5.7719692207210098  6.3834881805331900   T   T   T
  7.7017892410897302  4.5144821194164182  2.1137676487933299   F   F   F
  3.7865228842707901 -2.0409978023475701 10.7870814977641416   T   T   T
  2.4103255783023196  3.1911724382610096  6.3984895643916913   T   T   T
  3.8579979893453600  0.5836011763921797  4.2781421126485597   F   F   F
  8.3839938308403603  0.7244374061069188 10.7970217861436399   T   T   T
  0.9359308477885201  3.2168383822531799  2.1969178725793101   F   F   F
  5.3400357891770209 -1.9041534564875500  2.0917558592520802   F   F   F
  7.7822544619495302 -3.2591774852262301  2.1367210330127300   F   F   F
  1.5930269966858701  4.5044938514067798  4.2208811355935802   F   F   F
  0.8749585820455400  0.7116747852236698  8.6448923125504393   T   T   T
  5.4673267157155898  0.6977076156444598  8.6656629255903397   T   T   T
  5.4187211356043710  5.7510325895862886  8.6507630895292404   T   T   T
  0.1409155018089500  2.0014590995218300  6.3405726868074908   T   T   T
