Pt Pd Ni Co Fe 
 1.0000000000000000
     8.9921849999999992   -5.1708259999999999    0.0003830000000000
     0.0016270000000000   10.3507250000000006    0.0119590000000000
     0.0359360000000000   -0.0006580000000000   22.8809879999999986
 Pt  Pd  Ni  Co  Fe 
  13  17  15  18  17
Selective dynamics
Cartesian
  8.3801435136529303 -4.6146802503482007 10.8303703918866283   T   T   T
  7.5886114142702095 -3.3170808886565601  8.5288441124173495   T   T   T
  3.8926473941698796  5.8072417732380810  4.3159693871508402   F   F   F
  7.7076440764204284 -3.2047268840140397  2.1368646449592896   F   F   F
  0.8919659868102400  5.8528329833377999  2.1248445247008800   F   F   F
  0.9975427761083899  5.9720319094225403  8.5672973502540088   T   T   T
  1.6576189111875901  7.2081423158481899  4.3598324281079899   F   F   F
  0.9643336537112399  3.2989357548585203  8.5140093838767594   T   T   T
  3.9773681327746000  0.6476365179259401  4.3191660271896000   F   F   F
  5.4202037987034686  0.7645118657933303  8.5983937173258305   T   T   T
  7.6930607576343784 -0.5740631610081800  8.6057468653757390   T   T   T
  5.4411117875104091  5.8210938999505100  2.0539632878728500   F   F   F
  0.9179855932040499  0.5659404006583101  2.1948366375929700   F   F   F
  3.1589971930742298  1.9570752954331905  2.2057763772396699   F   F   F
  3.9642610641194493  3.3750712380439301 10.7868673978455298   T   T   T
  8.3733759787975792 -1.8587010273102798 10.8893483894727403   T   T   T
  4.6139421666482408 -0.6144997140387599  6.4554369074559990   T   T   T
  3.2570374241669895  2.0241589358493006  8.4813296406365293   T   T   T
  8.3354015116347302  0.6728052676950009  4.3933557916607500   F   F   F
  8.3555808804298710  3.3874788829637001  4.3573898495222103   F   F   F
  7.5869214052123093  2.0318949530575110  2.2021819905946298   F   F   F
  0.9067701403316800  0.5843179406154601  8.4928664510341196   T   T   T
  6.1964077481476094 -3.1190783578243599  4.2964789820698694   F   F   F
  3.1567828055951299  4.5495687760669901  2.1054256746403701   F   F   F
  7.5626759303705686 -0.6309004554191794  2.2138232657851096   F   F   F
  3.8974672019496790  0.6300196523696804 10.8411455708373587   T   T   T
  6.9975152084262380 -1.8778172105786097  6.3930992258264201   T   T   T
  3.1676335777014200  7.2656575427744201  2.0748226468853397   F   F   F
  4.6293287924546398  7.0725639562847009  6.5054143676093998   T   T   T
  3.1312137370670996 -0.7335075670461300  8.5882539204649202   T   T   T
  5.3489452949793694  0.6404161581209705  2.1746688008105699   F   F   F
  1.6331970066690500  2.0808703417138106  4.3142734083822498   F   F   F
  6.9114189790697589  0.7667692421696606  6.4404666187605990   T   T   T
  1.6824444913805099 -0.5879812704577599  4.3123802459680096   F   F   F
  1.6916114280745098  4.5781453150902598 10.7052194167454893   T   T   T
  0.1739378496641200  7.1973913109641705  6.5125706715476204   T   T   T
  6.2265279771925899  2.0116078453004214 10.6378489807772496   T   T   T
  6.0967505757705300  2.0481131500232497  4.3518079924116497   F   F   F
  3.2310871293949197  7.1298547049870908  8.6237580640102589   T   T   T
  4.7018947088628096  2.0515711108442001  6.3848520653853100   T   T   T
  4.6566999408249501  4.4964544801672703  6.4731068380727903   T   T   T
  1.6829095016172497  7.2058425320042003 10.6730765687716698   T   T   T
  2.4284982140369396  3.2892241453151905  6.3628889130953192   T   T   T
  7.6284138517329385  4.4575193813251603  8.5103444340620200   T   T   T
  0.2614930564894400  4.5412308173495095  6.3715551725319397   T   T   T
  7.0067518918312288  5.7286532509392405  6.4110838553556899   T   T   T
  1.6099882251310598 -0.7472567375120399 10.6841530749668596   T   T   T
  8.4733957988469406 -1.9554813751653397  4.3280409459418197   F   F   F
  2.3052884651069299  8.4647079506129401  6.4515042570045091   T   T   T
  5.4198874999243500  3.2605919067750810  2.2397988968063300   F   F   F
  0.8518837469292200  8.4452289090239816  8.5815220404692187   T   T   T
  3.9279280767473295 -1.8433371463407795  4.3025824200393092   F   F   F
  8.4366973076620297  3.2162830502542206 10.5909024621499697   T   T   T
  5.3782916762107789 -1.9697322134622997  8.6919904096342187   T   T   T
  0.1919289827712100  9.7237959443464010  6.4450309822721090   T   T   T
  3.8678885909822101  5.8950740136968198 10.6334672020354688   T   T   T
  0.2205991827460200  1.9762373551275301  6.3347307621073998   T   T   T
  6.1544526724893087 -0.5910355051598897  4.3944091723549903   F   F   F
  3.2809982959018096  4.6688728041268712  8.5686624496431296   T   T   T
  3.2305414529968393 -0.6061346283992899  2.1565068701422998   F   F   F
  8.4581889730161599  0.8097058894136400 10.6675924764555994   T   T   T
  2.4052886464320800  5.8418908254793305  6.4788150362254191   T   T   T
  7.6536786241495491  4.5593132993905909  2.1592722356552301   F   F   F
  5.3365037764867100  5.8023395074300508  8.5878983461937093   T   T   T
  8.5316893186543581 -4.4180042035717300  4.3640191432824595   F   F   F
  1.6234428884034497  4.5202056186275508  4.3087733152216501   F   F   F
  3.9307066611663797  3.2290883279509806  4.3158992361150998   F   F   F
  6.1552071779067701  4.5860371693496305 10.6124204568816900   T   T   T
  2.3171402373523202  0.7217611356527801  6.3567730048965201   T   T   T
  0.8926285312896399  3.2400570891270806  2.1798970517277199   F   F   F
  7.7185696679798097  2.0372145258687300  8.5891312204376504   T   T   T
  0.9083837285320299  8.4748166560484695  2.1273395105411499   F   F   F
  1.6651206376054999  1.9598828502711703 10.7507958860037593   T   T   T
  6.9143653071476283  3.2315185108839608  6.4972188894373701   T   T   T
  5.4764952510796991  3.3100640814054301  8.5354833060108799   T   T   T
  6.0954688582316496 -0.6761609970454197 10.7028829623183501   T   T   T
  3.8812572561837397 -1.9859183176549198 10.6933372858685782   T   T   T
  6.0734373607002397 -3.2146757082947501 10.6537838229074193   T   T   T
  5.3372487072223587 -1.8134821657717395  2.1674651996858398   F   F   F
  6.1501241100508990  4.5841447629953009  4.2725703926749796   F   F   F
