Pt Pd Ni Co Fe 
 1.0000000000000000
     8.9564489999999992   -5.1570619999999998   -0.0271120000000000
     0.0040050000000000   10.3273039999999998    0.0160500000000000
    -0.0007110000000000    0.0043940000000000   22.9221719999999998
 Pt  Pd  Ni  Co  Fe 
  14  14  18  17  17
Selective dynamics
Cartesian
  3.8492962279597798 -1.9122794562347196 10.7048178423180005   T   T   T
  0.1131553425316500  7.1869472786584989  6.4183574276791999   T   T   T
  6.7978883970800084  0.6938320135447000  6.4333494549896795   T   T   T
  0.9375939569290499  0.6950743365224199  8.6194916909620787   T   T   T
  6.0389999605394094  1.9850922255956998 10.7538156163056797   T   T   T
  5.3693294947036199 -1.9282660622261796  2.1660517766565799   F   F   F
  3.0769873038647999  4.4811183465309004  8.6053968233185003   T   T   T
  6.2239756226023797 -0.6328652278109003 10.7091177232470596   T   T   T
  4.6888587508733091  7.2159108517907997  6.5357378184350194   T   T   T
  3.0932895416499897 -0.5624341614634399  2.2287870936206602   F   F   F
  7.6060929671940594 -3.0998804876237798  8.4776698391194998   T   T   T
  2.3778193621688097  8.4847793899618598  6.4675398406583193   T   T   T
  2.4088567317893101  0.7921303615817198  6.3624610013514999   T   T   T
  3.8809372408981195  3.3465316861107799  4.2494234849108601   F   F   F
  7.6712127001193702 -3.2311567095729394  2.2168095083451198   F   F   F
  6.2234432047286994  4.6013254454446404 10.9556831555132792   T   T   T
  5.4006020397697503  3.2841272871212004  2.1274969764408600   F   F   F
  7.6488536375980187  1.9747082015441806  2.1334775190525801   F   F   F
  8.4511381616173793 -1.8565402960131596  4.3013317295692000   F   F   F
  7.6345357844311197  2.0119648050693999  8.6261996031945998   T   T   T
  5.3822267314850691  5.8108303660369600  8.7008294948288203   T   T   T
  6.0927736364864096 -3.2870185415741799  4.3743477350891595   F   F   F
  2.3692977118438199  5.8167766198284800  6.3899848671251993   T   T   T
  1.5870905253894598 -0.5451208104162201 10.8911128685930993   T   T   T
  4.7299466249827207  4.5306473531453202  6.4110513330029200   T   T   T
  3.7480385084763599  5.7834409053769598 10.9288966089606401   T   T   T
  6.0917418536803192 -0.5683981391728999  4.2754380865164201   F   F   F
  0.9559215529310700  5.8569386235745995  2.1763371181949402   F   F   F
  6.1556298992491492  1.9978116932937409  4.2542864562780798   F   F   F
  0.9189390305693699  8.4492994631765406  8.6460434506136803   T   T   T
  3.1303599903834294  4.6015094344370002  2.1420667333536998   F   F   F
  1.5873575352163196 -0.6628704536719999  4.3151681183353601   F   F   F
  0.9884434479041699  3.2618927771017603  2.2320193319967401   F   F   F
  0.0928491725475000  9.7469847407138399  6.4422002015586397   T   T   T
  5.2944650730245693  0.6997632826987599  8.5427246715767797   T   T   T
  5.3260739269937103  5.8180302331574003  2.2097667353720603   F   F   F
  7.6703504758330503 -0.5737916518915408  8.5490362784172405   T   T   T
  0.9208959104599199  0.6747199091916599  2.2585246231964997   F   F   F
  5.3662392459395090  0.6882510267170003  2.1560981193743798   F   F   F
  0.1636735789696500  1.9957925910317198  6.4001513170358599   T   T   T
  3.7893428024765399 -1.9102393397676998  4.3424106188118197   F   F   F
  3.1800117576724203 -0.5846136241355000  8.5889968684119786   T   T   T
  0.9049203670248001  5.8545090653240592  8.6064993312820199   T   T   T
  5.3771797129646695  3.2040726691962798  8.5283965114763003   T   T   T
  5.3678847841352102 -1.8020032187376198  8.5665749742196802   T   T   T
  4.6181958735365107 -0.5467281932845004  6.4709213063948798   T   T   T
  8.4734373409646402 -1.9034647225435604 10.5852128247557999   T   T   T
  1.6521027000339596  7.1819873651965001  4.2742535782082198   F   F   F
  3.7912744547100896  5.8979717600997406  4.1990102978886403   F   F   F
  3.2020279352648995  1.9286617284281597  8.5785575259739595   T   T   T
  3.8438924265475194  0.7504171069715401  4.2273653455880993   F   F   F
  3.0417529165270194  7.1893592558595794  8.6467340658402598   T   T   T
  1.6581680251920901  4.6292687508561601  4.2740832305989800   F   F   F
  8.4502500804850484 -4.5578746338462199  4.3789318155940000   F   F   F
  3.0699055733551197  1.9786570578329603  2.1931312883990399   F   F   F
  1.6612038669909601  1.9427826497087797  4.2073830777046997   F   F   F
  8.3244512971651492 -4.3271603907361404 10.6437074506402798   T   T   T
  0.9147212472546000  8.4393838875694787  2.2862811138371599   F   F   F
  6.9072109677860389 -1.8412288384868796  6.4280728500629998   T   T   T
  1.5048978311834100  4.5944348654504408 10.6252447294127794   T   T   T
  1.5755505081684298  7.1167085387675399 10.6144183973071602   T   T   T
  8.3923288592565601  3.3489450821713596  4.2310546945894005   F   F   F
  2.2959933041846701  3.2888250938436401  6.3972161202036597   T   T   T
  8.4268731632035490  3.2437598387165405 10.7389586565527200   T   T   T
  3.1409427857448593  7.1305459869373404  2.2729584031380199   F   F   F
  1.6717958566801199  2.0495216506143001 10.6800268784012200   T   T   T
  7.6389871813884902  4.5721920783917191  8.6322710625881793   T   T   T
  6.2264964365041493  4.5345721194653787  4.2304181658555997   F   F   F
  7.0171118648944200  5.8235786212780400  6.4100838325562801   T   T   T
  0.8735759213183999  3.3136811988447201  8.5676096838297191   T   T   T
  6.9243380796730492  3.3410430117122401  6.3954874898137399   T   T   T
  7.5966801129809998 -0.6305575224173000  2.0734970939818598   F   F   F
  6.2030550814992891 -3.1411703529581994 10.7377514246345012   T   T   T
  3.8056206300334194  3.2056182816400400 10.6679168742399604   T   T   T
  8.4164894230572003  0.7786519783995205  4.2946841770678805   F   F   F
  0.1475575000562700  4.4910076735977595  6.4898101097072205   T   T   T
  7.6667828831315088  4.5701741828733411  2.1686339270022801   F   F   F
  8.4510897400589400  0.6074712379539401 10.6758686393962190   T   T   T
  4.6210125553514994  1.9910905000761394  6.4070678324322197   T   T   T
  3.8637199727409595  0.6874935888449399 10.5997045496837412   T   T   T
