Pt Pd Ni Co Fe 
 1.0000000000000000
     9.0348150000000000   -5.1878500000000001   -0.0082870000000000
    -0.0577960000000000   10.2815770000000004   -0.0342180000000000
    -0.0094090000000000   -0.0583070000000000   22.9315239999999996
 Pt  Pd  Ni  Co  Fe 
  17  17  16  16  14
Selective dynamics
Cartesian
  4.6068239442222598  7.0872519578254307  6.4954670868800095   T   T   T
  2.2689862552082403  8.3833369324996703  6.3787574330881505   T   T   T
  3.8239752783414902  5.8870920654534213  4.1796454859345005   F   F   F
  8.3859637510690703 -1.9815607092418397  4.2504054727682599   F   F   F
  6.2064687009449004  2.0095124777646003 10.7186339473263885   T   T   T
  5.3417601958567298 -1.8742766868847598  2.2315170744380901   F   F   F
  1.5772430808106501  7.1924250384818000 10.8479446928843100   T   T   T
  3.8691802692334201  0.7449130374946601 10.7618284595847804   T   T   T
  0.1638243317027800  4.5078490646231408  6.4532983468936891   T   T   T
  3.8303538491239797  3.2111309604918401  4.1806483240697005   F   F   F
  4.5911945952890401  4.3649429875883206  6.5276503502643495   T   T   T
  5.4076059464968802 -1.9552340897864100  8.7785551994597810   T   T   T
  7.7144308625757603  2.0553405409815801  2.1166878407740000   F   F   F
  6.9457188201614901  5.7246321984513200  6.5379392145114394   T   T   T
  0.9549652661722100  5.8279637339213304  2.0495320194363402   F   F   F
  8.5061127848411608 -4.5936905434795205  4.2084181779746697   F   F   F
  0.8281606306408799  0.7137145951962900  8.6051956434074004   T   T   T
  3.0130707060930204  1.8846078006032601  2.0489648081850600   F   F   F
  6.9290529175405799 -1.9196051197843602  6.5376262069014492   T   T   T
  3.8730893595348803  5.7378227124535393 10.8948907242715993   T   T   T
  7.6700937781329408 -0.6443774681683297  2.1284115150151899   F   F   F
  3.1394870424568002 -0.6283387739231999  8.6311880073943907   T   T   T
  3.8704313055416901  0.5406607942746700  4.2460580712174405   F   F   F
  6.9252692478931799  3.0697894812843396  6.4348458622984399   T   T   T
  0.9303089066088199  5.8330827226402606  8.6563427821259200   T   T   T
  8.4002501328315304  0.6999976181998903  4.3223185989599395   F   F   F
  2.3828785311941800  0.7244640828197400  6.4098577802752796   T   T   T
  8.5542120190119704 -4.4612402774895408 10.9781017044755203   T   T   T
  5.4135491881258497  5.8045102062469507  2.0249934280727899   F   F   F
  6.1836377157977802  4.4653066085956405  4.2197673472265400   F   F   F
  6.2378305933884599 -3.1341917982941694 11.0446830910227884   T   T   T
  2.3563787531931002  5.7728013227580499  6.4366598230842502   T   T   T
  5.3783086565193203  3.2087141688729601  2.0195530144979901   F   F   F
  7.6782471251735496 -0.5956602200122001  8.7110421923536894   T   T   T
  1.6495142719320199 -0.6720939292419901  4.2427020483958602   F   F   F
  0.9206866733889000  8.4574018685521004  2.0792267786469401   F   F   F
  8.4953478535721008  3.1963075534456000  4.2684233849435795   F   F   F
  8.3883283076703794  0.6761421103979902 10.7963273014462686   T   T   T
  5.3847502469268598  0.6350913278920304  2.1369248363284901   F   F   F
  3.0419857766422003  7.1774459294310002  2.0790778569808896   F   F   F
  7.7322861009001196  4.5563589669944609  1.9888086998149499   F   F   F
  6.8581030302215806  0.6268245537939902  6.4562388142978095   T   T   T
  8.4344140191661801  3.2171773152733403 10.6207487888223895   T   T   T
  3.8947391445540398 -1.9288468570065298  4.3320373152628395   F   F   F
  6.1469776693832205  1.8416134760028604  4.2500179884952596   F   F   F
  7.6194764258247494  4.4431999313673005  8.6780074110040299   T   T   T
  6.1211557056396195 -0.7005982898245897  4.4206661391918693   F   F   F
  0.8906570835045601  0.6256791597498300  2.0793729537431100   F   F   F
  0.1818440236344900  1.9307446780316202  6.4072281162088194   T   T   T
  8.4902841110301690 -1.8649463159256898 10.7214343048565190   T   T   T
  0.0670123681164600  7.1272456611021298  6.4755512539645697   T   T   T
  3.1239877744683899  4.5492304115447197  1.9659857730685597   F   F   F
  0.8885769102528900  3.2106242961704199  2.0994919287167799   F   F   F
  1.6650788008395201 -0.5980885163605900 10.6989749494037003   T   T   T
  3.2591061085437802  2.0440295843104899  8.4977510197133501   T   T   T
  1.6028032878885099  7.1660965421379306  4.2033323918114096   F   F   F
  5.3310830074781803  5.6722169268546399  8.7012392962592209   T   T   T
  1.6074005403529301  1.9284635342836900  4.2163495196929004   F   F   F
  6.1544477711033601 -0.5504790365024202 10.7835218887283197   T   T   T
  2.3414173288022200  3.1812332478829100  6.3838725582639402   T   T   T
  0.9451823492372901  3.2276084308720199  8.5410701564018705   T   T   T
  7.6749390473405894  1.9756716942197210  8.5851951069866494   T   T   T
  4.6868329711208894  1.8058306717106707  6.4947519081438303   T   T   T
  5.4001473122704606  0.7311505091892299  8.5159104119786804   T   T   T
  1.6124767784393501  4.4699709529254505  4.1552772139421403   F   F   F
  0.7400213959462200  8.3889010688511103  8.5420268894997591   T   T   T
  3.8686100964430703 -1.8287334395036898 10.8923819059022495   T   T   T
  4.7088100966544193 -0.5968542998041899  6.4561207065298696   T   T   T
  3.0884936185949003 -0.6639246783699999  2.1129912140466800   F   F   F
  7.7773238895991099 -3.2655852651236201  2.0687029635728997   F   F   F
  3.1519590684110099  7.0547108443626811  8.7445828108483088   T   T   T
  3.8898729772152305  3.2534574139335910 10.6932132379474005   T   T   T
  1.5237772021687002  4.5549039443592507 10.7697829239058400   T   T   T
  1.7019735134252501  2.1787059046967001 10.5847889637067691   T   T   T
  7.6398627357752797 -3.2969651392107098  8.7616762704855802   T   T   T
  3.1108492503450296  4.3327494933093407  8.6514736147353091   T   T   T
  6.1386309054624002 -3.1809642628565000  4.4083608787354303   F   F   F
  6.2120341165300195  4.5758439057719604 10.6378785449831792   T   T   T
  0.1026681704161000  9.6048904245283513  6.4261910935467297   T   T   T
  5.4489780039541804  3.1450099697593408  8.5703749682203902   T   T   T
