Pt Pd Ni Co Fe 
 1.0000000000000000
     8.9845959999999998   -5.1242000000000001    0.0030630000000000
     0.0408230000000000   10.3251139999999992    0.0249720000000000
     0.0492080000000000    0.0155290000000000   22.9187680000000000
 Pt  Pd  Ni  Co  Fe 
  18  15  16  18  13
Selective dynamics
Cartesian
  5.4273508518571196 -1.9012732539874400  2.1782117767005200   F   F   F
  3.8833250166461801  3.4027581934278195  4.2762556817516000   F   F   F
  1.7488071442558497  7.0226543867134694 10.8604375679714806   T   T   T
  1.6850295927233998  2.0033086783400900 10.8226425682828005   T   T   T
  8.4262451147519517 -4.4172743018140102 10.8916692453388499   T   T   T
  1.7803831109284698  7.1856695356520497  4.2553052928978703   F   F   F
  1.7288206595560298 -0.5718804013592800 10.8841877611219395   T   T   T
  7.7082663396606197  4.6675755180408389  8.5943527209751291   T   T   T
  3.1553451238422396  4.6142815025148796  8.6328920848155803   T   T   T
  8.4384041033020907  0.7852181131407000  4.2893374399929396   F   F   F
  3.9437324501944304  3.2799072264257991 10.7967405830124399   T   T   T
  5.4708958408432293  3.1900710528716498  8.5112374869284402   T   T   T
  6.2341156218776499  4.6111472238693487  4.1963999681219901   F   F   F
  5.4014417571137114  6.0093685299985795  8.6392906013146504   T   T   T
  6.1971323331680201  4.5454235032991690 10.9258570341111998   T   T   T
  2.4708442752519399  5.9374489835278998  6.3769289870254706   T   T   T
  2.5128837806942799  8.4521743914736795  6.5003009495169106   T   T   T
  2.4177780660408899  3.1692790904465999  6.3821426299443305   T   T   T
  8.3954226076896195 -1.8800229100641808  4.1710921573020094   F   F   F
  3.9114905133375397  0.6668697328076396  4.1844074991859905   F   F   F
  0.1914598531935400  9.7077882035377296  6.3955710818032800   T   T   T
  3.1216574854411396  1.9732329227822096  2.0391417613792999   F   F   F
  1.0031724178385100  8.4257685333225982  8.5890993706293806   T   T   T
  8.4420143478166114  3.2774186310864484 10.9261987406082000   T   T   T
  1.6262313930414400  1.9736234781702400  4.2031156268142604   F   F   F
  3.9692171813105399  0.6762361227985395 10.7977379619420990   T   T   T
  7.6855190093784902  2.0609142460666692  2.0855956923989498   F   F   F
  0.1427481038084400  2.0239481399464601  6.4584299022849203   T   T   T
  3.9556589174240702 -1.9078948741211501 10.7910278512226796   T   T   T
  8.4191650795744994 -1.7961129964675304 10.8364243228206298   T   T   T
  7.6881100681017394  1.9422383726241188  8.6428581300552203   T   T   T
  6.1840903484423491 -0.5711552187237201  4.2824337628973694   F   F   F
  0.9132401288176799  3.3106805136394994  8.6398960770183404   T   T   T
  1.6774045465190399  4.6150921202955395  4.2914656412229499   F   F   F
  0.9815582176356199  8.4398748866213893  2.0907225257970299   F   F   F
  0.8477259483008200  0.6156873389450298  2.1413676794926699   F   F   F
  0.9366252198471899  5.8410479938814301  2.1446898465629500   F   F   F
  5.4229691406478899  3.3389451642838002  2.1154470532458602   F   F   F
  6.1910225994908501 -3.1219986792507601 10.7658319815369392   T   T   T
  3.9886492620382303  5.9279847481491394  4.2204754436328296   F   F   F
  5.4185217053391099  5.8235996678036495  2.1424319921864101   F   F   F
  8.4896504207250505  3.3908473590656696  4.1867069269919899   F   F   F
  7.6459340690324007 -3.0724859191725096  8.6067452241135598   T   T   T
  3.0813433530413299 -0.6890689979561900  2.1263499722763699   F   F   F
  7.7104444732703801  4.6370266712976891  2.1044915900401300   F   F   F
  6.1774784860815499  2.0278107190102994  4.2589096077521402   F   F   F
  3.1647413876549200  1.9891136585220397  8.5723541124020102   T   T   T
  6.9240398541200996  3.2079400941666694  6.4410353740835893   T   T   T
  0.2538661006852100  7.0289668922422983  6.5601151608227397   T   T   T
  3.1225835606673198  4.6022222960767900  2.1530378991604602   F   F   F
  1.6945096694584598  4.5859798692429390 10.7433976938862799   T   T   T
  4.6569766202729799  2.0115926376723490  6.4744837562974098   T   T   T
  6.1555115362157098 -3.1590342183761502  4.2829778772476503   F   F   F
  3.1857825030243498 -0.6442713459389500  8.6049666255526791   T   T   T
  0.1575614748311200  4.5961497862803000  6.4527632254956995   T   T   T
  6.8658083263034797  5.9332529360046191  6.4354876849184901   T   T   T
  5.4075991626428497 -1.9006357973259298  8.5841905765265203   T   T   T
  3.9036573908736703  5.8690547485000293 10.7515635933959697   T   T   T
  5.4808994195304503  0.7377685083072996  2.1229797396202001   F   F   F
  5.4249217604885507  0.7460094472882295  8.6601175295623207   T   T   T
  0.9198534161225900  3.3896038395039798  2.0806964656105800   F   F   F
  6.2085253748978708  1.9203782435427594 10.7579509904484905   T   T   T
  4.6501458708569503  7.1376854561835996  6.4828708149129000   T   T   T
  3.1376988187573405  7.0840814184299390  8.6430716588651304   T   T   T
  4.7079387779703596 -0.6170781921258405  6.4746048932019100   T   T   T
  7.7179484923051502 -0.5425344717376706  2.0606345765046199   F   F   F
  0.9874890206914501  0.7093457853133398  8.6667346403019998   T   T   T
  4.7264174254361997  4.5862251738623492  6.4441599851106792   T   T   T
  8.3751933050240286 -4.4561778505116605  4.1938313546536099   F   F   F
  3.1724986529358201  7.0842199060611586  2.1532353354835401   F   F   F
  8.4378711219373894  0.7570063978415094 10.8244372211515287   T   T   T
  1.0381250894522300  5.8593418368754291  8.6508535851236488   T   T   T
  2.4605157280097902  0.6962636562494899  6.4636974756867005   T   T   T
  6.1694551113711000 -0.5212187238249101 10.7906762728645891   T   T   T
  6.9722130379887206  0.6645578810891093  6.4396923818634200   T   T   T
  6.9022374174364796 -1.8335972454352902  6.4743956276849195   T   T   T
  1.6454964360616402 -0.6225326592805102  4.1446027933259497   F   F   F
  7.7262466814996902 -0.5017003691294506  8.5930862740435803   T   T   T
  3.9374316907507101 -1.8991419283436100  4.2686996531506702   F   F   F
  7.6248798194064591 -3.2469027659977794  2.1084940468022699   F   F   F
