Pt Pd Ni Co Fe 
 1.0000000000000000
     8.9376460000000009   -5.1802149999999996   -0.0567110000000000
     0.0080190000000000   10.3804099999999995    0.0354720000000000
    -0.0291720000000000    0.0284160000000000   22.9142790000000005
 Pt  Pd  Ni  Co  Fe 
  15  14  16  18  17
Selective dynamics
Cartesian
  8.3337268746521005 -4.4603555423417793  4.2339768847038197   F   F   F
  8.3295026221744521  3.3363061643390797 10.7307297592003508   T   T   T
  8.2689520360151612 -4.4876702763540397 10.6987315798527494   T   T   T
  7.5150046232724801 -3.1312375214939792  2.0980498511863401   F   F   F
  6.0382379888079400 -0.5408698912395599 10.6632093152812306   T   T   T
  3.0754595328558705 -0.5820503327077199  2.1562755907001199   F   F   F
  8.3164523315573096 -1.9075559892515397 10.7360943668177402   T   T   T
  0.9698234748662301  0.6576318858760399  8.5114923390535111   T   T   T
  3.9273453699899803 -1.8545485155058496  4.3268648994573997   F   F   F
  0.9412658376618501  3.3459036170501499  8.5532428545499091   T   T   T
  3.0520193988538802  7.2106178889202193  8.5478699661190500   T   T   T
  5.3154748451103702  3.3511508843002700  8.6746527992767906   T   T   T
  3.0972154659914999  4.5996237613363800  2.1633015101550299   F   F   F
  4.5329610523799309  1.9857209692821898  6.4470131352348794   T   T   T
  6.0464234651778703  1.9159320838844400  4.2336468130348299   F   F   F
  3.8200092680141098  3.3222409013672398  4.4021767363972204   F   F   F
  7.5938139026857199  1.9820497148678498  8.5471149340580403   T   T   T
  0.1699366359383300  4.5700692848699598  6.4187403797461400   T   T   T
  3.1286732139106999  7.1620609537549704  2.1560415944734999   F   F   F
  3.8397199250105705 -1.8618834725497397 10.7103859053409192   T   T   T
  8.3628395239152997  0.7176497047388800 10.7667447817666897   T   T   T
  6.8637089659227515  5.9025495590060792  6.4470895426388610   T   T   T
  0.1962167107037800  7.2340538239556293  6.5238927969755505   T   T   T
  3.1206311981968704  2.0113212636959203  2.1859074593928800   F   F   F
  8.3403830464390118  3.2959840666310591  4.2355448397718405   F   F   F
  7.5653767577320608  1.9814896606940708  2.0766831818404903   F   F   F
  1.6752585700066103  7.0852331542172298  4.3141000504033098   F   F   F
  4.5908388353936704  7.1662596434242101  6.4521308461068001   T   T   T
  6.8216180824950312  0.6430189888594499  6.4476577829952300   T   T   T
  1.6403314864965701  2.0374827096823900 10.7232330324191789   T   T   T
  0.8429652863222500  3.2863730311018498  2.2373418441625299   F   F   F
  0.8550881571027001  8.5107784425447406  2.1954772580292903   F   F   F
  6.0717503969532602 -3.1681122886492497 10.6447345990515903   T   T   T
  1.5681224053011502  7.2185363771869797 10.6842587008487904   T   T   T
  6.0644671755094004  4.6615249313744505  4.2731032725083500   F   F   F
  1.6104603492565601  2.0155014767399497  4.2743614646413901   F   F   F
  1.6610769195049702 -0.6222816553639299 10.6823173426648417   T   T   T
  8.3276161156057302  0.5908473487164200  4.2528420154919804   F   F   F
  3.7580605778597698  5.8988487548816302 10.7196701733250510   T   T   T
  3.1868209916684207 -0.5334806409924598  8.5183366681752695   T   T   T
  5.3808557733503495  5.8449328336539006  2.2188757205447498   F   F   F
  3.1610303531763106  4.6016790776097496  8.5624654566863807   T   T   T
  1.6169633633031704  4.6000844427121299 10.7841622020940004   T   T   T
  4.5827383668950405 -0.6165778454545598  6.4801332359145603   T   T   T
  0.8396330268446102  0.6684220169629300  2.1832717918296902   F   F   F
  5.2743096232419404  0.6742163998374798  8.5938014438286707   T   T   T
  3.1638151133331904  1.9999592931833299  8.6030157467161796   T   T   T
  2.3374807550837104  8.5929509391063501  6.4687122327801001   T   T   T
  0.1851981555461100  9.8012062973036596  6.4860673886784301   T   T   T
  6.0590216201469698  2.0073670786385809 10.7020985911582915   T   T   T
  7.5242597907581912 -0.6200461574194803  8.5277829295792102   T   T   T
  2.4307064053552705  5.8210315260516206  6.4469411912500707   T   T   T
  2.4123752030842298  0.6924547469751102  6.4169809211430104   T   T   T
  3.9947197799280403  5.8539135618287501  4.3385735311132603   F   F   F
  6.1661919151497706 -0.6532118325858697  4.1811007414913801   F   F   F
  1.6597606043087001 -0.5634314424072200  4.2860261932468697   F   F   F
  6.0814558382306707  4.5489261182994598 10.7119564214980496   T   T   T
  8.3103515294115518 -1.8278255804114898  4.2217286499977300   F   F   F
  5.4407113662266706  0.5646065408750003  2.1113094655619102   F   F   F
  0.8094628700080901  5.7946522599292507  2.2494773746334502   F   F   F
  6.0758083271593106 -3.2001473995073595  4.2338813288452402   F   F   F
  2.3780236799295804  3.3669863530645694  6.5133757740005596   T   T   T
  7.5975125328322406  4.6503357808992893  8.5029264085572205   T   T   T
  6.8260627807708811 -1.8895551340980201  6.3788314065741893   T   T   T
  3.8563337233254105  0.6571027791387798  4.2950415303689198   F   F   F
  1.5037864484755401  4.5139527300030107  4.2827992189484902   F   F   F
  0.8831804986997002  5.8853021120705389  8.6596322735117610   T   T   T
  3.7748650779167807  0.7228885880069995 10.5880692787839408   T   T   T
  0.2075214836484500  2.0353082376756699  6.4186972735187897   T   T   T
  5.3758568857964004 -1.8326344286098097  2.1546246160842801   F   F   F
  6.8216489947796601  3.3898510129793804  6.4450184768119998   T   T   T
  5.3993351380125905  5.8736606502375501  8.6345926223229004   T   T   T
  4.5293703652862707  4.6179762192074509  6.4580137790489998   T   T   T
  5.4105604284308404  3.3696859376349799  2.1574688794786501   F   F   F
  5.4034561436211304 -1.8289866220701700  8.5356086173148711   T   T   T
  7.5456081263647796  4.6318978636938999  2.1219130690947599   F   F   F
  0.8469313145295101  8.5318639322091787  8.6037200641302398   T   T   T
  7.5376144601582702 -3.1444964477918096  8.5358963649015305   T   T   T
  3.7843678545950103  3.2685850405482499 10.6947848098355696   T   T   T
  7.6477318939468413 -0.5608342282048002  2.1142275382097000   F   F   F
