Pt Pd Ni Co Fe 
 1.0000000000000000
     9.0348150000000000   -5.1878500000000001   -0.0082870000000000
    -0.0577960000000000   10.2815770000000004   -0.0342180000000000
    -0.0094090000000000   -0.0583070000000000   22.9315239999999996
 Pt  Pd  Ni  Co  Fe 
  17  17  16  16  14
Selective dynamics
Cartesian
  4.6104509952669295  7.0855775856684398  6.4704865374187994   T   T   T
  2.2738400655022701  8.3872731377660603  6.3855021116474404   T   T   T
  3.8239752783414902  5.8870920654534213  4.1796454859345005   F   F   F
  8.3859637510690703 -1.9815607092418397  4.2504054727682599   F   F   F
  6.1900151808406996  1.8908029907432002 10.7158908385420606   T   T   T
  5.3417601958567298 -1.8742766868847598  2.2315170744380901   F   F   F
  1.5599207815721401  7.0905153675204700 10.8579584419815607   T   T   T
  3.8613482257024900  0.6163694332244697 10.8245855733350798   T   T   T
  0.1715613793988100  4.5015519566269804  6.4676829454639497   T   T   T
  3.8303538491239797  3.2111309604918401  4.1806483240697005   F   F   F
  4.5976506689800107  4.3669231795662800  6.5100786067482703   T   T   T
  5.3910983180844703 -1.9501975896058905  8.7322621307343091   T   T   T
  7.7144308625757603  2.0553405409815801  2.1166878407740000   F   F   F
  6.9569396805565900  5.7287156045479701  6.5230771190219503   T   T   T
  0.9549652661722100  5.8279637339213304  2.0495320194363402   F   F   F
  8.5061127848411608 -4.5936905434795205  4.2084181779746697   F   F   F
  0.8450073748077601  0.7118912550640799  8.6310835099010497   T   T   T
  3.0130707060930204  1.8846078006032601  2.0489648081850600   F   F   F
  6.9285465669136901 -1.9150223255111805  6.5150304893043796   T   T   T
  3.8301028632156897  5.6139284755048200 10.8136461804787292   T   T   T
  7.6700937781329408 -0.6443774681683297  2.1284115150151899   F   F   F
  3.1219903612789999 -0.6378771585955999  8.6418599125293412   T   T   T
  3.8704313055416901  0.5406607942746700  4.2460580712174405   F   F   F
  6.9254489423418102  3.0711828334166302  6.4413467621051899   T   T   T
  0.9230188142716099  5.8292791224345804  8.6418700738730188   T   T   T
  8.4002501328315304  0.6999976181998903  4.3223185989599395   F   F   F
  2.3830070566890300  0.7245399276443402  6.4206954126987101   T   T   T
  8.4673394091701688 -4.6023312917460899 10.9165188724592799   T   T   T
  5.4135491881258497  5.8045102062469507  2.0249934280727899   F   F   F
  6.1836377157977802  4.4653066085956405  4.2197673472265400   F   F   F
  6.1800538809141203 -3.2547771409568402 10.9280598481033699   T   T   T
  2.3494930720556804  5.7737272822086911  6.4179588178541493   T   T   T
  5.3783086565193203  3.2087141688729601  2.0195530144979901   F   F   F
  7.6660531388438589 -0.6196619711149196  8.7030726237006686   T   T   T
  1.6495142719320199 -0.6720939292419901  4.2427020483958602   F   F   F
  0.9206866733889000  8.4574018685521004  2.0792267786469401   F   F   F
  8.4953478535721008  3.1963075534456000  4.2684233849435795   F   F   F
  8.3751606031373722  0.5677323060568106 10.8183445287400595   T   T   T
  5.3847502469268598  0.6350913278920304  2.1369248363284901   F   F   F
  3.0419857766422003  7.1774459294310002  2.0790778569808896   F   F   F
  7.7322861009001196  4.5563589669944609  1.9888086998149499   F   F   F
  6.8600488956556802  0.6297664635104400  6.4586009726672495   T   T   T
  8.3971971373569492  3.1115418981412502 10.6381983560015403   T   T   T
  3.8947391445540398 -1.9288468570065298  4.3320373152628395   F   F   F
  6.1469776693832205  1.8416134760028604  4.2500179884952596   F   F   F
  7.6041742150548899  4.4124774699533198  8.6825098260728186   T   T   T
  6.1211557056396195 -0.7005982898245897  4.4206661391918693   F   F   F
  0.8906570835045601  0.6256791597498300  2.0793729537431100   F   F   F
  0.1851264722763800  1.9254450628445900  6.4248491407731301   T   T   T
  8.4436550343884296 -1.9775300986124100 10.7245152988247892   T   T   T
  0.0690596569785300  7.1280495114396398  6.4680022567410891   T   T   T
  3.1239877744683899  4.5492304115447197  1.9659857730685597   F   F   F
  0.8885769102528900  3.2106242961704199  2.0994919287167799   F   F   F
  1.6365864985187200 -0.6906732765451901 10.7054231625654293   T   T   T
  3.2139671531021894  2.0649713344874705  8.5900639892693196   T   T   T
  1.6028032878885099  7.1660965421379306  4.2033323918114096   F   F   F
  5.3556501145483910  5.6600055299155194  8.6536392089887393   T   T   T
  1.6074005403529301  1.9284635342836900  4.2163495196929004   F   F   F
  6.1521196970127008 -0.6563444585085497 10.7742025218099098   T   T   T
  2.3462979702115700  3.1867539587746103  6.4052800988880296   T   T   T
  0.9914314773204201  3.2422410815850098  8.6221158802531388   T   T   T
  7.6561572827673308  1.9584135484492400  8.5864813394869604   T   T   T
  4.6718306822750302  1.8144824447059900  6.5169146593528993   T   T   T
  5.3692577403189699  0.7246801057078103  8.5013693448555294   T   T   T
  1.6124767784393501  4.4699709529254505  4.1552772139421403   F   F   F
  0.7219567418124800  8.3875123273707910  8.5737023042734197   T   T   T
  3.8512456715253505 -1.9462573153834501 10.8310582586416491   T   T   T
  4.7061441736925094 -0.5936790869384199  6.4452112960839507   T   T   T
  3.0884936185949003 -0.6639246783699999  2.1129912140466800   F   F   F
  7.7773238895991099 -3.2655852651236201  2.0687029635728997   F   F   F
  3.1501427893763703  7.0352001918031606  8.7134888809361204   T   T   T
  3.8180274027816603  3.1106904441320800 10.6931751557761796   T   T   T
  1.4801453299573502  4.4129711301232000 10.7200558590213895   T   T   T
  1.6232557216992001  1.9849564367365999 10.7472704107687989   T   T   T
  7.6620471108879213 -3.2835012583090397  8.7062630445210587   T   T   T
  3.1313123341079403  4.3539687782476202  8.5878448375051093   T   T   T
  6.1386309054624002 -3.1809642628565000  4.4083608787354303   F   F   F
  6.1346731431879791  4.4362856343548414 10.6207631671466007   T   T   T
  0.1084175878763300  9.6022223180605906  6.4434106139656198   T   T   T
  5.4290016281662403  3.1292286816235202  8.5835245367743092   T   T   T
