Pt Pd Ni Co Fe 
 1.0000000000000000
     8.9737360000000006   -5.1895480000000003    0.0044630000000000
    -0.0247690000000000   10.3424999999999994   -0.0160880000000000
     0.0218050000000000   -0.0357650000000000   22.9062790000000014
 Pt  Pd  Ni  Co  Fe 
  14  18  16  14  18
Selective dynamics
Cartesian
  4.6302933701702402  7.0677252454713191  6.5136831899739400   T   T   T
  3.8434341685613003  3.1618471165721593  4.1720377703352609   F   F   F
  2.3826006823986998  8.4925537273666496  6.4451517688433304   T   T   T
  1.6724676704112100  1.9597740698078796 10.8139236947577206   T   T   T
  6.1390034399591498  2.0269163140339295 10.8030040216779604   T   T   T
  6.8447527407267703  0.6462714312290093  6.5174826787495999   T   T   T
  8.3893042481001014  0.6189827366325290  4.2914068217444701   F   F   F
  7.5941178089244206  2.0238410498887092  2.1339270430715800   F   F   F
  3.8734180719959905  0.5867186793971800 10.8321556394849416   T   T   T
  8.3846124038246703 -1.9051390585535699 10.8068109919157500   T   T   T
  7.6579625385743508 -3.2341646103955508  8.5105167755775302   T   T   T
  1.7536757314715201  4.6776295863796191 10.9026934216734510   T   T   T
  0.0943218287214200  9.8675214431461793  6.4384282733781406   T   T   T
  3.1662470963743501  1.8682090184180196  8.4543530744627109   T   T   T
  3.0879940167717903  7.2065646842525091  2.0383573738187999   F   F   F
  5.3593616794935306 -1.9040164443695802  8.7270123819990495   T   T   T
  5.2911096639882409  0.6145995532517596  2.1562708040735301   F   F   F
  0.1965764043676200  4.4509767317635198  6.4789951739951199   T   T   T
  7.6274873027454309 -0.7448354201928007  2.1230267904965299   F   F   F
  0.1478529804075600  7.1473545978263493  6.4934189251200900   T   T   T
  3.1903122453357504  4.5592530235800490  8.5388232249650198   T   T   T
  6.7870982477789097  3.3092996986116989  6.5185585827463912   T   T   T
  4.6049316539659708 -0.5518708123784504  6.4661649138086110   T   T   T
  6.2336876798260006  4.5046113786599404  4.2346264934421400   F   F   F
  5.4439638787326610  5.8790764767157597  2.0884195399175400   F   F   F
  8.3226407898142511 -4.6607648088809706 10.8721215986577810   T   T   T
  3.8796880743561704  5.8898649734904707  4.2374955943543302   F   F   F
  0.8710771125229900  5.8331184665283997  8.6729298621812312   T   T   T
  6.1201267012029001 -0.6671383614576001 10.9753634325393499   T   T   T
  6.2200378730155998 -3.1225489654787699  4.2300273507578501   F   F   F
  0.8548661794045102  8.5028054097967800  8.6960170242453412   T   T   T
  1.6082730148560105  7.2612302910314996  4.1956368765854002   F   F   F
  6.1247579379391199  1.9315150185415597  4.2653890679709203   F   F   F
  4.5715344610237096  4.5236715438878994  6.4195111507406200   T   T   T
  1.6736069059084002 -0.6789652101227102 10.7807479893100897   T   T   T
  0.8463777091582401  0.6792340854452498  2.1292028348511503   F   F   F
  0.9306298231114501  5.7488227154250291  2.0877640377489102   F   F   F
  8.4015468280473709  3.2784073946180290  4.2870843177435898   F   F   F
  3.0827689248922399 -0.6059266449472802  2.1983222187270202   F   F   F
  7.5492315261786702  1.9521634357675484  8.6786521566007107   T   T   T
  6.9315454567194115 -1.9547691557542306  6.3752444976150109   T   T   T
  0.9166756275516301  3.1902248292657602  8.5522154828993102   T   T   T
  8.4531191738295224 -4.5097434252340207  4.2377395114023502   F   F   F
  0.8776715024073801  8.5643067950056189  2.0710513739012701   F   F   F
  4.5899506424154017  2.0204417973379494  6.3638472123657506   T   T   T
  6.0364662947051100  4.5452463599540502 10.6672488957734810   T   T   T
  5.3762558257983599  3.2281791534066997  8.6070425516918512   T   T   T
  3.0882547780026703  4.5345061658782804  2.1293810800148800   F   F   F
  6.0766268597464803 -0.5923327127837904  4.3040505004969196   F   F   F
  8.4269212748171203  3.1292492479982585 10.7357718318257103   T   T   T
  1.5906127408713102  1.9122433164412398  4.1969607746667004   F   F   F
  8.5164697856478497 -1.9732379051797901  4.2869801096066702   F   F   F
  3.1337746249625997  7.1773113518825591  8.7087138468917118   T   T   T
  7.5375446969321205  4.5121829368986592  8.6641080991853308   T   T   T
  5.3168120926736808  3.2260550955950298  2.0916868788170602   F   F   F
  3.9884839017693703  5.8797152334886791 10.6743348012394303   T   T   T
  3.9215052421491103 -1.7871002893979799  4.2926539765271201   F   F   F
  6.0633269992673906 -3.3559273551799902 10.7359615380402005   T   T   T
  7.5958281671146102 -0.5882783756557906  8.6892564757260811   T   T   T
  3.9496362401016101  3.3538099724950698 10.7198432861110202   T   T   T
  1.6981110933381702  7.1857156899485988 10.7171724475910413   T   T   T
  3.0754867689479299  1.9173441830332891  2.1953668739203005   F   F   F
  3.1124077275208899 -0.6807622496927902  8.6903248397716713   T   T   T
  6.8493172919304497  5.8720760994410792  6.4217234995041812   T   T   T
  2.3523633034516900  0.8100211905565400  6.2868832873093510   T   T   T
  1.5994919073465401 -0.5134685879653502  4.2105758266193805   F   F   F
  2.4147367994616000  5.7813607895673496  6.3873676281015301   T   T   T
  7.7017892410897302  4.5144821194164182  2.1137676487933299   F   F   F
  3.7942181690146306 -2.0391261876828799 10.7970330532507806   T   T   T
  2.4121094358486599  3.2054244901536495  6.4027290544091109   T   T   T
  3.8579979893453600  0.5836011763921797  4.2781421126485597   F   F   F
  8.3899406803730905  0.7283731796345591 10.7955564285068206   T   T   T
  0.9359308477885201  3.2168383822531799  2.1969178725793101   F   F   F
  5.3400357891770209 -1.9041534564875500  2.0917558592520802   F   F   F
  7.7822544619495302 -3.2591774852262301  2.1367210330127300   F   F   F
  1.5930269966858701  4.5044938514067798  4.2208811355935802   F   F   F
  0.8685339484438200  0.7117748952229599  8.6607382980309513   T   T   T
  5.4710606059755893  0.7017848052513398  8.6710197151074304   T   T   T
  5.4225024847417806  5.7556830024553696  8.6494954016372603   T   T   T
  0.1344912165193600  2.0101691994560098  6.3400536570069805   T   T   T
