Pt Pd Ni Co Fe 
 1.0000000000000000
     8.9787920000000003   -5.1385339999999999   -0.0093560000000000
     0.0222510000000000   10.3219250000000002   -0.0044850000000000
     0.0100720000000000   -0.0211110000000000   22.9158259999999991
 Pt  Pd  Ni  Co  Fe 
  16  13  19  18  14
Selective dynamics
Cartesian
  3.1380448910792400 -0.7144599595629199  8.6270270285689197   T   T   T
  3.0844515955729803  4.5829349319417600  8.7346327109069399   T   T   T
  5.3372877350185002  5.9434813926948307  2.1791862312513199   F   F   F
  0.7962422072617700  0.6941669252969601  8.7412080293245893   T   T   T
  1.7219911981660601  7.0751749090594505  4.2289121402941996   F   F   F
  1.7244096329574901 -0.5143786820993000  4.3782869323255502   F   F   F
  5.4783661004648403  0.5608908564115002  8.5088120931744005   T   T   T
  2.4278591501529903  5.8785471415720503  6.4481275557691493   T   T   T
  8.3989128789164997 -1.8868019131382399  4.3369656515561399   F   F   F
  0.9688650814886399  8.4337636250947909  2.0894744533008600   F   F   F
  1.8325906612802201  7.1021930610473989 10.8265592059936999   T   T   T
  8.3678606050375794 -1.8752074066576501 10.8112045330223996   T   T   T
  7.6758138994918506  4.6200519618077900  2.1505394637656101   F   F   F
  0.2388200129072000  9.7171867777046899  6.5434851554674598   T   T   T
  4.6913666526489806  4.5212389338807100  6.4683313409460395   T   T   T
  3.2453349552010100 -0.5314909634037700  2.1547785200247698   F   F   F
  0.1272047949745700  7.0746664159039696  6.5227750583617299   T   T   T
  6.8485634068299097 -1.7670694205030397  6.5357928407378898   T   T   T
  2.3320214978206302  3.1959415576718406  6.4357736624902095   T   T   T
  8.3843604063642285  3.2815850078319109  4.3302001303389899   F   F   F
  3.1287473706637101  1.9388816884020803  8.6527052286633701   T   T   T
  8.4190687612868409  3.3394113258044404 10.9204898098875596   T   T   T
  7.6227324230839200 -0.5350896981707797  2.2199379603718796   F   F   F
  5.4401738423533406  3.2454922323420097  8.7035114158788396   T   T   T
  5.4382696144949296  5.9074012542601597  8.6994135358555909   T   T   T
  6.1627263706206401  4.5891732348985403  4.3116538746887603   F   F   F
  7.7116851210456208  1.9341291160143297  8.6903601601775211   T   T   T
  6.9503220106466106  5.9244374047015507  6.5025712613536495   T   T   T
  3.8560164411592406  3.2159472744661106  4.2542465468787398   F   F   F
  7.6760842644564207  4.5441000000480605  8.6723854632015396   T   T   T
  0.1666333173409700  1.9956531970258702  6.4826217205651293   T   T   T
  6.1654137533889903  1.8993938251665110  4.3126755571227893   F   F   F
  3.1288933299440500  2.0286337881834302  2.1485921076319698   F   F   F
  3.9570463291301703  0.6367785087148400 10.7542668780461099   T   T   T
  6.0329185148685909  1.9292396795296396 10.8098619529028106   T   T   T
  0.9479736934168801  5.7539872856298198  2.2229864793322798   F   F   F
  8.2797125768345197 -4.4219129007757001 10.7626951223131986   T   T   T
  7.6029622334597402  1.9888524210135303  2.1857771310301199   F   F   F
  5.3938803509452597 -1.8589501865470197  2.2148282273850199   F   F   F
  0.8905697932262900  5.7847835953470002  8.6986255318505492   T   T   T
  2.4991369955448799  0.6763250330961100  6.4221618578661399   T   T   T
  4.6379991373402394  7.2144294287705408  6.4286941170307603   T   T   T
  6.1203244599358504 -3.1723275272684703 10.7641674764423705   T   T   T
  8.4215641553429990  0.6474043855985496 10.7783293258460997   T   T   T
  5.3945053536076699  3.2162744965177108  2.1579151108657899   F   F   F
  4.7368763674087502  1.8902425026701501  6.3693591955753499   T   T   T
  0.8968121872041800  0.8176658750786000  2.1937165034335000   F   F   F
  8.4228321235846799 -4.3901963419970098  4.3156967431662601   F   F   F
  3.8366617236708502  3.2074985709908406 10.8290536006923102   T   T   T
  6.8565676922429812  0.7704125831656701  6.3404015604594797   T   T   T
  6.1298839428902703 -0.5899121688608495 10.6603782380917504   T   T   T
  5.3814918997204000 -1.9601822594683096  8.6536620542174596   T   T   T
  6.1102863679057497  4.5781629128838706 10.7968872901764303   T   T   T
  7.6190472845710202 -3.1037835057184995  8.6855458926662994   T   T   T
  1.6134839044131402  1.9979325539546697  4.2514379170770802   F   F   F
  3.1462157349336506  7.1402041473276796  8.5602120054132698   T   T   T
  1.6318156420878700  4.4899565967941104 10.7804903366003906   T   T   T
  2.5271378913610696  8.4425287233648518  6.4480915770503495   T   T   T
  7.7468700738592799 -0.6356395910449000  8.6561148596057986   T   T   T
  6.0658769865626896 -0.6223022271384696  4.2819153613005705   F   F   F
  1.7021058533377500  2.0085578228644900 10.8088650694319082   T   T   T
  0.9595842249556500  3.1978086636830199  2.1523024908612300   F   F   F
  5.4440889910585204  0.7936000579682300  2.2519617642376200   F   F   F
  6.8761788574735405  3.2158442506726708  6.5023762603226798   T   T   T
  1.6791027123013500  4.4816195442286206  4.2373647603219302   F   F   F
  3.9435925616849303  5.9177594686170805  4.2823214530728695   F   F   F
  6.1665792432630511 -3.1429049410442298  4.3616803968373299   F   F   F
  8.3451917617132008  0.6900651120962502  4.3264987074869001   F   F   F
  1.7121435340101403 -0.4412502730705601 10.8689615951330598   T   T   T
  3.1151989007517602  4.4977843761401193  2.1289823831296797   F   F   F
  3.1902740576796602  7.1966311137603798  2.0902851233782198   F   F   F
  4.5983788978391802 -0.6085352908194597  6.3893199783920593   T   T   T
  0.8336348204608300  3.2811107824964001  8.6638349904498497   T   T   T
  3.9812700776444299  0.7245642553148705  4.2940293809026295   F   F   F
  7.6989323742285105 -3.1720574853553498  2.1681879173235497   F   F   F
  0.1324124994196400  4.5525191311407802  6.5553715471223200   T   T   T
  4.0161242677612403 -1.9295502410908800  4.2625220104478796   F   F   F
  4.0869004634787203 -1.9005012663355698 10.7133936883454197   T   T   T
  0.9618727126610901  8.3491748947746594  8.6917873559749896   T   T   T
  4.0233961791466299  5.6665942868951404 10.8711606666472083   T   T   T
