Pt Pd Ni Co Fe 
 1.0000000000000000
     8.9845959999999998   -5.1242000000000001    0.0030630000000000
     0.0408230000000000   10.3251139999999992    0.0249720000000000
     0.0492080000000000    0.0155290000000000   22.9187680000000000
 Pt  Pd  Ni  Co  Fe 
  18  15  16  18  13
Selective dynamics
Cartesian
  5.4273508518571196 -1.9012732539874400  2.1782117767005200   F   F   F
  3.8833250166461801  3.4027581934278195  4.2762556817516000   F   F   F
  1.6614719539806999  7.1963513578839802 10.7659198750126102   T   T   T
  1.7462844612646899  1.9483562521712094 10.7877792911746297   T   T   T
  8.4906671514338399 -4.4699961985921393 10.8888925751427799   T   T   T
  1.7803831109284698  7.1856695356520497  4.2553052928978703   F   F   F
  1.7064623929794902 -0.6085837423827101 10.8608940091565795   T   T   T
  7.6811811771751497  4.5523514041995696  8.6791965455041407   T   T   T
  3.2193917740649596  4.5110255485463604  8.5174144408864798   T   T   T
  8.4384041033020907  0.7852181131407000  4.2893374399929396   F   F   F
  3.9336260435043400  3.2390030622073591 10.7046240966046202   T   T   T
  5.3997600106604304  3.3680232669611598  8.5790168339862003   T   T   T
  6.2341156218776499  4.6111472238693487  4.1963999681219901   F   F   F
  5.3167334574597893  5.8425689109020098  8.6778327343622408   T   T   T
  6.1984297330205189  4.5074127632894099 10.8568878884260300   T   T   T
  2.5070975553608599  5.7269455186703890  6.4042226496758401   T   T   T
  2.4384234943345997  8.4217741058278097  6.4943639749956592   T   T   T
  2.3933100281233499  3.3966057204385294  6.4879786374692303   T   T   T
  8.3954226076896195 -1.8800229100641808  4.1710921573020094   F   F   F
  3.9114905133375397  0.6668697328076396  4.1844074991859905   F   F   F
  0.2439516420090900  9.6725250059299697  6.3923798988886009   T   T   T
  3.1216574854411396  1.9732329227822096  2.0391417613792999   F   F   F
  0.9546030437988400  8.3589064889118294  8.7467470303858299   T   T   T
  8.6035571249523315  3.2995396754708191 10.8124176594254600   T   T   T
  1.6262313930414400  1.9736234781702400  4.2031156268142604   F   F   F
  3.8601942982464799  0.7207585016587498 10.7956012612888390   T   T   T
  7.6855190093784902  2.0609142460666692  2.0855956923989498   F   F   F
  0.1906007067717100  2.0866796946182697  6.4563336525636998   T   T   T
  3.8632650913593900 -1.8837192318799703 10.7845465603683799   T   T   T
  8.4429271616640396 -1.8275777455562401 10.8263648360955393   T   T   T
  7.7304376314082113  2.0531212384899900  8.6846078467752807   T   T   T
  6.1840903484423491 -0.5711552187237201  4.2824337628973694   F   F   F
  1.0439875633310498  3.3184342083533895  8.6112248033565191   T   T   T
  1.6774045465190399  4.6150921202955395  4.2914656412229499   F   F   F
  0.9815582176356199  8.4398748866213893  2.0907225257970299   F   F   F
  0.8477259483008200  0.6156873389450298  2.1413676794926699   F   F   F
  0.9366252198471899  5.8410479938814301  2.1446898465629500   F   F   F
  5.4229691406478899  3.3389451642838002  2.1154470532458602   F   F   F
  6.2040653480762602 -3.1175094376097201 10.7783022280992604   T   T   T
  3.9886492620382303  5.9279847481491394  4.2204754436328296   F   F   F
  5.4185217053391099  5.8235996678036495  2.1424319921864101   F   F   F
  8.4896504207250505  3.3908473590656696  4.1867069269919899   F   F   F
  7.6590125414958594 -3.0696508825929398  8.6244752678569601   T   T   T
  3.0813433530413299 -0.6890689979561900  2.1263499722763699   F   F   F
  7.7104444732703801  4.6370266712976891  2.1044915900401300   F   F   F
  6.1774784860815499  2.0278107190102994  4.2589096077521402   F   F   F
  3.1354323557744901  2.0986830168263295  8.6273617327584891   T   T   T
  6.9353700994697105  3.2008008844194085  6.4626297183177197   T   T   T
  0.2999680556474000  7.0330154363061093  6.5825843430322903   T   T   T
  3.1225835606673198  4.6022222960767900  2.1530378991604602   F   F   F
  1.7007785141224601  4.5464535610733492 10.7333923307452803   T   T   T
  4.6351095009058092  2.0449189556618901  6.4713674925107396   T   T   T
  6.1555115362157098 -3.1590342183761502  4.2829778772476503   F   F   F
  3.1688825693548996 -0.6641640541536502  8.6312460840611802   T   T   T
  0.2041808411272200  4.5587451339826899  6.4426310125781310   T   T   T
  6.8774050946257601  5.9223134391820285  6.4368593044945799   T   T   T
  5.4120992273921491 -1.9298760998490601  8.5913340892221406   T   T   T
  3.9218651465479799  5.8747766008917592 10.7378801474594994   T   T   T
  5.4808994195304503  0.7377685083072996  2.1229797396202001   F   F   F
  5.4268045813769605  0.7803392389266202  8.6794627831562092   T   T   T
  0.9198534161225900  3.3896038395039798  2.0806964656105800   F   F   F
  6.1974840368892101  1.9574999982837495 10.7539784899779800   T   T   T
  4.5907821885152105  7.1212382051309993  6.4781253563155499   T   T   T
  3.0853882960521397  7.0491833017188696  8.6522899950445495   T   T   T
  4.7129769487779098 -0.6189674070452902  6.4509855900561606   T   T   T
  7.7179484923051502 -0.5425344717376706  2.0606345765046199   F   F   F
  0.9761764436352999  0.7165899618024000  8.6970265607964699   T   T   T
  4.6297901133388795  4.5944933003465298  6.5136010400979396   T   T   T
  8.3751933050240286 -4.4561778505116605  4.1938313546536099   F   F   F
  3.1724986529358201  7.0842199060611586  2.1532353354835401   F   F   F
  8.4284456324441379  0.7708817150725497 10.8304422326557201   T   T   T
  1.0857962765493199  5.8861769465292095  8.6544846809189195   T   T   T
  2.4319579558429103  0.6942804563572996  6.4317127298543992   T   T   T
  6.1750237624327804 -0.5228806432226005 10.8252209101020807   T   T   T
  6.9904003937811003  0.6332477810716797  6.4286666168140503   T   T   T
  6.9245702934142601 -1.8052991823506299  6.4472395630796404   T   T   T
  1.6454964360616402 -0.6225326592805102  4.1446027933259497   F   F   F
  7.7489247579827190 -0.4763651220889304  8.5892539212525794   T   T   T
  3.9374316907507101 -1.8991419283436100  4.2686996531506702   F   F   F
  7.6248798194064591 -3.2469027659977794  2.1084940468022699   F   F   F
