Pt Pd Ni Co Fe 
 1.0000000000000000
     8.9645670000000006   -5.0970750000000002   -0.0554420000000000
     0.0644260000000000   10.3118449999999999    0.0416760000000000
    -0.0230490000000000    0.0365270000000000   22.9434980000000017
 Pt  Pd  Ni  Co  Fe 
  15  16  18  14  17
Selective dynamics
Cartesian
  5.3870828187918800  5.9518448315948005  2.1903580643572802   F   F   F
  8.4992284593738709 -1.7232361861499899 10.7492552071894210   T   T   T
  6.1562254406478392 -3.0561450018755503 10.8174418564472408   T   T   T
  0.0610395827599700  2.0224607088343403  6.5467128253723406   T   T   T
  5.5262890991687703  5.8622914165233304  8.5667138896734603   T   T   T
  2.4572180500491201  3.3215490165635604  6.4341403877571599   T   T   T
  3.1108389734638497  4.5765727658316395  2.2200361440076199   F   F   F
  5.4736043491441704  3.2765891183954396  2.1412797793182201   F   F   F
  8.4657308428830511 -4.3828543907651101 10.8268753532647803   T   T   T
  3.2017844759684606  7.1842029698195198  8.6414057951527212   T   T   T
  1.7240972492627002  2.0090247608398597  4.2132858029558804   F   F   F
  8.3948903863178916  3.2125248473095698  4.2107817997867807   F   F   F
  8.3363933556863898 -4.4341334078142900  4.2143548522103407   F   F   F
  0.8534923091860900  8.3494131030810390  8.5095598658061800   T   T   T
  0.9183547524403199  0.6737287515307500  8.5861175633075213   T   T   T
  8.3683674067774003  3.2929778084742898 10.7370918394853607   T   T   T
  5.3198535968514600  0.7027058501848499  2.1030956998902401   F   F   F
  3.2225485858601002  1.9904916715232899  8.5417662047245209   T   T   T
  1.6765433722088601  7.0749383194857902 10.8972722691916406   T   T   T
  3.8817771312912903 -1.7583925815928501 10.8273006785467008   T   T   T
  8.4049067444106988 -1.7706763441735101  4.3305708301336807   F   F   F
  6.0591191276965111  4.5838033410430503 10.8720402250857422   T   T   T
  6.1027964217414796 -0.5341592115453601  4.3462863305578407   F   F   F
  4.7529094350358303  7.1834242900780394  6.4686730784286999   T   T   T
  2.3410507198763102  5.9155030793942300  6.4651755615358200   T   T   T
  6.0498150140226912  1.9242207125857298 10.7609204492385402   T   T   T
  5.5025104229096602  3.2204460168167395  8.4777498818340415   T   T   T
  7.6388748138537608 -3.0928996619441702  2.0820915662532800   F   F   F
  3.8907452164992300 -1.9529003018489701  4.2754445050562202   F   F   F
  1.7044892512269501 -0.6570281212761000  4.2506117364040605   F   F   F
  7.6604480056419799 -0.4703623935913703  2.1224154197492004   F   F   F
  3.2137598645145804 -0.5731795940454600  8.4897292105606414   T   T   T
  0.9436131066630500  3.2758924776550398  2.1555366363757802   F   F   F
  8.3974085268655205  0.7505975678485201 10.5666521870995602   T   T   T
  4.7401112741775595  4.5383141907482099  6.3852303188039201   T   T   T
  6.1169048187337811  4.5605297816928605  4.3095715048250405   F   F   F
  3.9000825506956098  5.8301186427116996  4.3561074636363006   F   F   F
  8.4479339068853321  0.7504322492784800  4.3213217414425804   F   F   F
  3.8784925880576306  5.8025084649910399 10.7060441153857013   T   T   T
  1.6820086118226902  7.0628998684053306  4.3576128834506207   F   F   F
  0.1722797139543300  9.6889968344676891  6.4658092717815006   T   T   T
  3.1593209348898204  4.5952586708215604  8.6066640211741205   T   T   T
  6.0966042464075896 -3.1676756101544696  4.2979834548116607   F   F   F
  3.1206443418142205  7.2933173037391104  2.1258434527795602   F   F   F
  1.7059902122820001 -0.5182704203245601 10.6822420917660796   T   T   T
  0.0870118647767700  7.1069262551001398  6.4434493678912599   T   T   T
  0.9476342752742800  0.6020212442032500  2.0803049053747200   F   F   F
  2.4342674197608902  8.5403933640637302  6.4964511309477402   T   T   T
  2.4690924898737103  0.6862892361785697  6.4008974997481003   T   T   T
  3.9110449744960003  0.7808161282998097  4.2608044967819607   F   F   F
  4.6153812409789401 -0.4311262933862800  6.4763197151794802   T   T   T
  0.0330590673097800  4.6347144580898609  6.5717714359283601   T   T   T
  1.7911424767715403  2.0075810365736499 10.6756897469013214   T   T   T
  7.6894157565829300  4.5951446238452505  8.4530408273525008   T   T   T
  0.8798419270216800  3.3833523607148002  8.6331081578122006   T   T   T
  6.9452563875624307  5.8082141837062293  6.4255523246136601   T   T   T
  3.8312169504724900  0.6697646095236597 10.5700013539079816   T   T   T
  1.7359853926405402  4.5806012288353708 10.5774050438448004   T   T   T
  6.1458028893696701 -0.5344629003969995 10.5409073200478609   T   T   T
  1.6838353074473402  4.6500639295675796  4.3384246163743603   F   F   F
  4.7738942209389501  1.9952151462314200  6.2628398688958207   T   T   T
  0.8626521169561501  5.7668923574359505  8.6007016626046209   T   T   T
  7.6581246809462513  1.8835133621665201  8.4674770777373798   T   T   T
  6.9637588098591108  3.3817020847494597  6.4081490791100206   T   T   T
  6.1475578831355504  1.9961974845924599  4.2959753701033803   F   F   F
  6.9224794248726793  0.7827462694392101  6.4632050684616003   T   T   T
  5.3858320218828304  0.6096791050198798  8.5358597209062204   T   T   T
  3.7369065247321807  3.3350033733352999 10.6844341966496010   T   T   T
  6.8192166740749007 -1.7809834396643007  6.4659785366484801   T   T   T
  7.7419376633189003  2.0091791796972998  2.0305414884455204   F   F   F
  0.9495897264283101  5.8730926849553207  2.2589322638409404   F   F   F
  3.9220389167086398  3.3200706070967394  4.2947413434796404   F   F   F
  7.6883977147739309 -0.5164740080932899  8.5947928864124599   T   T   T
  5.4432233280881004 -1.7955155488375900  8.6053291375516796   T   T   T
  5.3476260759139098 -1.8655597480013597  2.1358807246250202   F   F   F
  0.9082608755440802  8.3550907069620202  2.1285184107234403   F   F   F
  3.0772893685651601 -0.5668594718032401  2.0913831529290401   F   F   F
  7.6316939665453196 -3.1289721372796797  8.6492932779005613   T   T   T
  7.7483230520549302  4.6192245030598604  2.0849841662146202   F   F   F
  3.0990653512511206  1.9524236310853897  2.0779178670889604   F   F   F
