Pt Pd Ni Co Fe 
 1.0000000000000000
     8.9737360000000006   -5.1895480000000003    0.0044630000000000
    -0.0247690000000000   10.3424999999999994   -0.0160880000000000
     0.0218050000000000   -0.0357650000000000   22.9062790000000014
 Pt  Pd  Ni  Co  Fe 
  14  18  16  14  18
Selective dynamics
Cartesian
  4.6452477106842105  7.0135154626380798  6.4216171016881907   T   T   T
  3.8434341685613003  3.1618471165721593  4.1720377703352609   F   F   F
  2.3897815894752301  8.4709792345268990  6.3961115811853908   T   T   T
  1.6268989269586303  1.9146639371153100 10.8163690846757117   T   T   T
  6.1674428405023205  1.9696537941186898 10.8101120759515101   T   T   T
  6.8114157822231505  0.6365603857080199  6.5106592802246208   T   T   T
  8.3893042481001014  0.6189827366325290  4.2914068217444701   F   F   F
  7.5941178089244206  2.0238410498887092  2.1339270430715800   F   F   F
  3.8962115022167398  0.5668212384560598 10.8409752544348503   T   T   T
  8.3780189773957296 -1.9550528487380607 10.8599552279791816   T   T   T
  7.6020519851174209 -3.2591178216917003  8.5774421135043912   T   T   T
  1.6572869922220601  4.5921320069048193 10.8508764207194197   T   T   T
  0.1797369425472700  9.8595718397425784  6.3384260373929004   T   T   T
  3.1451543357221396  1.9151317496228799  8.4887912767895610   T   T   T
  3.0879940167717903  7.2065646842525091  2.0383573738187999   F   F   F
  5.3325612137967697 -1.9323856867523099  8.6672566414189003   T   T   T
  5.2911096639882409  0.6145995532517596  2.1562708040735301   F   F   F
  0.1821000107606500  4.4144596604633790  6.4259222565855110   T   T   T
  7.6274873027454309 -0.7448354201928007  2.1230267904965299   F   F   F
  0.2142550377500600  7.1171124096514102  6.4362639213644801   T   T   T
  3.1696246893747100  4.5639740475114694  8.5710482385599693   T   T   T
  6.7791732218226404  3.2585656963299487  6.4319853202731503   T   T   T
  4.6962703543728210 -0.5496235216791004  6.4242037017903204   T   T   T
  6.2336876798260006  4.5046113786599404  4.2346264934421400   F   F   F
  5.4439638787326610  5.8790764767157597  2.0884195399175400   F   F   F
  8.3472932705094109 -4.6512242588699904 10.7629481651529098   T   T   T
  3.8796880743561704  5.8898649734904707  4.2374955943543302   F   F   F
  0.8272884110521801  5.8173722466611286  8.5835009528761201   T   T   T
  6.1048097064237998 -0.6493753710451601 10.8462460948826607   T   T   T
  6.2200378730155998 -3.1225489654787699  4.2300273507578501   F   F   F
  0.8815560358519701  8.4894917333382089  8.6397548595996305   T   T   T
  1.6082730148560105  7.2612302910314996  4.1956368765854002   F   F   F
  6.1247579379391199  1.9315150185415597  4.2653890679709203   F   F   F
  4.6953411599705799  4.5501615472724000  6.4413930843467506   T   T   T
  1.6876139022847201 -0.6726615915232200 10.7922376492271805   T   T   T
  0.8463777091582401  0.6792340854452498  2.1292028348511503   F   F   F
  0.9306298231114501  5.7488227154250291  2.0877640377489102   F   F   F
  8.4015468280473709  3.2784073946180290  4.2870843177435898   F   F   F
  3.0827689248922399 -0.6059266449472802  2.1983222187270202   F   F   F
  7.5636851198181105  1.9724928757908793  8.6694647979914308   T   T   T
  6.9288446864995610 -1.9677419144256199  6.4222544766308403   T   T   T
  0.8361854467145301  3.2006107961665000  8.5620360628185601   T   T   T
  8.4531191738295224 -4.5097434252340207  4.2377395114023502   F   F   F
  0.8776715024073801  8.5643067950056189  2.0710513739012701   F   F   F
  4.5905948411140791  1.9045502350511696  6.4198365387620004   T   T   T
  6.1174832048349606  4.4525344790745898 10.6975990854736498   T   T   T
  5.4031164202845607  3.2661061205791402  8.6344995770893505   T   T   T
  3.0882547780026703  4.5345061658782804  2.1293810800148800   F   F   F
  6.0766268597464803 -0.5923327127837904  4.3040505004969196   F   F   F
  8.3309338936580115  3.1997961814318288 10.7260541869354800   T   T   T
  1.5906127408713102  1.9122433164412398  4.1969607746667004   F   F   F
  8.5164697856478497 -1.9732379051797901  4.2869801096066702   F   F   F
  3.1610362780122903  7.1290311955755099  8.5840107453210113   T   T   T
  7.5338262324646807  4.5453785566392595  8.5116581848312016   T   T   T
  5.3168120926736808  3.2260550955950298  2.0916868788170602   F   F   F
  4.0431802786679105  5.8973412528246190 10.6979699216607518   T   T   T
  3.9215052421491103 -1.7871002893979799  4.2926539765271201   F   F   F
  6.0887629604963305 -3.1776739117252104 10.8298839693466107   T   T   T
  7.5810743832082199 -0.6484820192798206  8.6186003769790407   T   T   T
  3.9551179290273106  3.2232436404491791 10.7373680573871102   T   T   T
  1.6935729194904601  7.1743277049819598 10.8217003104021607   T   T   T
  3.0754867689479299  1.9173441830332891  2.1953668739203005   F   F   F
  3.1237262663904199 -0.6806743700202501  8.6468354111499810   T   T   T
  6.9213606838930612  5.8484355629223792  6.4261352300424406   T   T   T
  2.3633455593171502  0.7298278735517100  6.3609860031959400   T   T   T
  1.5994919073465401 -0.5134685879653502  4.2105758266193805   F   F   F
  2.3853268620458099  5.8494467353942294  6.3950762778802002   T   T   T
  7.7017892410897302  4.5144821194164182  2.1137676487933299   F   F   F
  3.8888786364057299 -1.9178820556397504 10.7736954258205007   T   T   T
  2.3499619992385101  3.1635637864581097  6.3909790106443909   T   T   T
  3.8579979893453600  0.5836011763921797  4.2781421126485597   F   F   F
  8.2861232278145724  0.5859337964258393 10.8021063359424314   T   T   T
  0.9359308477885201  3.2168383822531799  2.1969178725793101   F   F   F
  5.3400357891770209 -1.9041534564875500  2.0917558592520802   F   F   F
  7.7822544619495302 -3.2591774852262301  2.1367210330127300   F   F   F
  1.5930269966858701  4.5044938514067798  4.2208811355935802   F   F   F
  0.9018384459684901  0.6808110830594299  8.5161012103654308   T   T   T
  5.4015016752181513  0.6169976191496194  8.6306375041546595   T   T   T
  5.3521635047243503  5.7853213657933900  8.6109525256872708   T   T   T
  0.1145376891238100  1.9433636613589600  6.3313314294246004   T   T   T
