Pt Pd Ni Co Fe 
 1.0000000000000000
     9.0348150000000000   -5.1878500000000001   -0.0082870000000000
    -0.0577960000000000   10.2815770000000004   -0.0342180000000000
    -0.0094090000000000   -0.0583070000000000   22.9315239999999996
 Pt  Pd  Ni  Co  Fe 
  17  17  16  16  14
Selective dynamics
Cartesian
  4.6077249615582900  7.0879820907329201  6.4972447681846601   T   T   T
  2.2676847008566701  8.3800125211075596  6.3771067425888699   T   T   T
  3.8239752783414902  5.8870920654534213  4.1796454859345005   F   F   F
  8.3859637510690703 -1.9815607092418397  4.2504054727682599   F   F   F
  6.2033307773904598  2.0000144872708301 10.7165105855126406   T   T   T
  5.3417601958567298 -1.8742766868847598  2.2315170744380901   F   F   F
  1.5750987238687797  7.1793655169433910 10.8521106175903395   T   T   T
  3.8640797221498500  0.7323255548991503 10.7622844881835089   T   T   T
  0.1620533859025400  4.4990118927127201  6.4561835138082397   T   T   T
  3.8303538491239797  3.2111309604918401  4.1806483240697005   F   F   F
  4.5940352187035698  4.3629568275668111  6.5253803383407494   T   T   T
  5.4088466140940099 -1.9629310939061198  8.7813140398893292   T   T   T
  7.7144308625757603  2.0553405409815801  2.1166878407740000   F   F   F
  6.9451692507893599  5.7221513374352808  6.5392955960260899   T   T   T
  0.9549652661722100  5.8279637339213304  2.0495320194363402   F   F   F
  8.5061127848411608 -4.5936905434795205  4.2084181779746697   F   F   F
  0.8240306542964101  0.7095563236400301  8.6048782149339491   T   T   T
  3.0130707060930204  1.8846078006032601  2.0489648081850600   F   F   F
  6.9302389891490099 -1.9229696164856700  6.5386329800795995   T   T   T
  3.8649732825838998  5.7221553167033505 10.8981451116331893   T   T   T
  7.6700937781329408 -0.6443774681683297  2.1284115150151899   F   F   F
  3.1351684906988799 -0.6333306690878100  8.6327831618853903   T   T   T
  3.8704313055416901  0.5406607942746700  4.2460580712174405   F   F   F
  6.9251627528429998  3.0625263719788491  6.4340004389750600   T   T   T
  0.9282426120037700  5.8310613106148095  8.6547848398109402   T   T   T
  8.4002501328315304  0.6999976181998903  4.3223185989599395   F   F   F
  2.3802377888281101  0.7228999704446800  6.4106758509034298   T   T   T
  8.5416960346323290 -4.4778764803513109 10.9783279147860302   T   T   T
  5.4135491881258497  5.8045102062469507  2.0249934280727899   F   F   F
  6.1836377157977802  4.4653066085956405  4.2197673472265400   F   F   F
  6.2272293308498403 -3.1490476050734801 11.0471321115764294   T   T   T
  2.3580320072156096  5.7699106088677299  6.4310397503429595   T   T   T
  5.3783086565193203  3.2087141688729601  2.0195530144979901   F   F   F
  7.6775299818425298 -0.6097450858933101  8.7133041981842698   T   T   T
  1.6495142719320199 -0.6720939292419901  4.2427020483958602   F   F   F
  0.9206866733889000  8.4574018685521004  2.0792267786469401   F   F   F
  8.4953478535721008  3.1963075534456000  4.2684233849435795   F   F   F
  8.3823665562111902  0.6583886171071203 10.7985832059634106   T   T   T
  5.3847502469268598  0.6350913278920304  2.1369248363284901   F   F   F
  3.0419857766422003  7.1774459294310002  2.0790778569808896   F   F   F
  7.7322861009001196  4.5563589669944609  1.9888086998149499   F   F   F
  6.8618418567239905  0.6227150074069698  6.4573183435697796   T   T   T
  8.4286847250160690  3.2008964097657611 10.6233900880797201   T   T   T
  3.8947391445540398 -1.9288468570065298  4.3320373152628395   F   F   F
  6.1469776693832205  1.8416134760028604  4.2500179884952596   F   F   F
  7.6177440416867501  4.4339545450707503  8.6813788306325499   T   T   T
  6.1211557056396195 -0.7005982898245897  4.4206661391918693   F   F   F
  0.8906570835045601  0.6256791597498300  2.0793729537431100   F   F   F
  0.1810149973332200  1.9283097839264103  6.4071553702392396   T   T   T
  8.4793729153475805 -1.8808319256927097 10.7306365601013400   T   T   T
  0.0674458267462400  7.1262294780062705  6.4743330183156100   T   T   T
  3.1239877744683899  4.5492304115447197  1.9659857730685597   F   F   F
  0.8885769102528900  3.2106242961704199  2.0994919287167799   F   F   F
  1.6586791426160401 -0.6141589371151300 10.6930649883678797   T   T   T
  3.2553826884362205  2.0378786188487599  8.5020897987471002   T   T   T
  1.6028032878885099  7.1660965421379306  4.2033323918114096   F   F   F
  5.3308691372150703  5.6632056094607108  8.7043093520972903   T   T   T
  1.6074005403529301  1.9284635342836900  4.2163495196929004   F   F   F
  6.1510251058424998 -0.5660530729698000 10.7867383396330698   T   T   T
  2.3393979933376996  3.1790704790124007  6.3823961322201299   T   T   T
  0.9489353185907701  3.2272249277746101  8.5504887658180699   T   T   T
  7.6693641981530796  1.9653479892964902  8.5882771954031103   T   T   T
  4.6851104377550099  1.8029828098294800  6.4951926119276395   T   T   T
  5.4013901079578703  0.7184128378836094  8.5178392495608399   T   T   T
  1.6124767784393501  4.4699709529254505  4.1552772139421403   F   F   F
  0.7368251278993799  8.3837329703091417  8.5408635649424589   T   T   T
  3.8582527771813901 -1.8398840385440800 10.8952296901236299   T   T   T
  4.7066957230258195 -0.6019475309652396  6.4551285690582203   T   T   T
  3.0884936185949003 -0.6639246783699999  2.1129912140466800   F   F   F
  7.7773238895991099 -3.2655852651236201  2.0687029635728997   F   F   F
  3.1481373283608001  7.0481449036118997  8.7471545652001996   T   T   T
  3.8802283970039397  3.2389215764250703 10.6801534739573807   T   T   T
  1.5159179740177300  4.5371351302159395 10.7524886782468094   T   T   T
  1.6885507382210401  2.1535984037220701 10.6019939128992000   T   T   T
  7.6394550696599595 -3.3043673072921691  8.7644218327879386   T   T   T
  3.1107443825066698  4.3369202080075597  8.6357928408837701   T   T   T
  6.1386309054624002 -3.1809642628565000  4.4083608787354303   F   F   F
  6.2045050304487104  4.5585139751931312 10.6410833964639693   T   T   T
  0.1032504497493000  9.6017537065493013  6.4253693589240894   T   T   T
  5.4478726049810993  3.1355565555680003  8.5679881717344699   T   T   T
