Pt Pd Ni Co Fe 
 1.0000000000000000
     8.9787920000000003   -5.1385339999999999   -0.0093560000000000
     0.0222510000000000   10.3219250000000002   -0.0044850000000000
     0.0100720000000000   -0.0211110000000000   22.9158259999999991
 Pt  Pd  Ni  Co  Fe 
  16  13  19  18  14
Selective dynamics
Cartesian
  3.1300744699895504 -0.7108780908421598  8.6152412082760090   T   T   T
  3.0856173861923502  4.5867104951030697  8.7269514001058290   T   T   T
  5.3372877350185002  5.9434813926948307  2.1791862312513199   F   F   F
  0.7929311457778701  0.6984619826910801  8.7346899730329692   T   T   T
  1.7219911981660601  7.0751749090594505  4.2289121402941996   F   F   F
  1.7244096329574901 -0.5143786820993000  4.3782869323255502   F   F   F
  5.4796946736443690  0.5601709627731905  8.4908561386226094   T   T   T
  2.4256643229783306  5.8760080685030598  6.4463873574903898   T   T   T
  8.3989128789164997 -1.8868019131382399  4.3369656515561399   F   F   F
  0.9688650814886399  8.4337636250947909  2.0894744533008600   F   F   F
  1.8173102482297798  7.1000409052739801 10.8127152975976202   T   T   T
  8.3635077141689607 -1.8788177770271901 10.8033960300735394   T   T   T
  7.6758138994918506  4.6200519618077900  2.1505394637656101   F   F   F
  0.2388358621023000  9.7133131263059695  6.5416924979410807   T   T   T
  4.6869353788883306  4.5269537933523001  6.4630611951953494   T   T   T
  3.2453349552010100 -0.5314909634037700  2.1547785200247698   F   F   F
  0.1208789153426300  7.0746435659498204  6.5150026111423305   T   T   T
  6.8452188402223699 -1.7649858705833297  6.5287324480921294   T   T   T
  2.3297990762047602  3.2005714576917801  6.4336522935075200   T   T   T
  8.3843604063642285  3.2815850078319109  4.3302001303389899   F   F   F
  3.1306282451117502  1.9384425451215199  8.6424582427373302   T   T   T
  8.4031752591676110  3.3339034752453691 10.9147296371449301   T   T   T
  7.6227324230839200 -0.5350896981707797  2.2199379603718796   F   F   F
  5.4411228409278802  3.2498181749682908  8.6924271461896598   T   T   T
  5.4342280729866701  5.9084927991447991  8.6939620154202490   T   T   T
  6.1627263706206401  4.5891732348985403  4.3116538746887603   F   F   F
  7.7124316733223202  1.9346830988605901  8.6810106749944591   T   T   T
  6.9502419563823006  5.9281842020130897  6.5012788982379597   T   T   T
  3.8560164411592406  3.2159472744661106  4.2542465468787398   F   F   F
  7.6722093542115104  4.5431370427414697  8.6536608496664300   T   T   T
  0.1658901868590300  1.9927270626878701  6.4750608013464301   T   T   T
  6.1654137533889903  1.8993938251665110  4.3126755571227893   F   F   F
  3.1288933299440500  2.0286337881834302  2.1485921076319698   F   F   F
  3.9467174770212199  0.6316958156303105 10.7415613517604385   T   T   T
  6.0282799983650399  1.9261092491670000 10.7876571991464001   T   T   T
  0.9479736934168801  5.7539872856298198  2.2229864793322798   F   F   F
  8.2599578953922403 -4.4254848368776702 10.7431416991756183   T   T   T
  7.6029622334597402  1.9888524210135303  2.1857771310301199   F   F   F
  5.3938803509452597 -1.8589501865470197  2.2148282273850199   F   F   F
  0.8856468977911701  5.7801717103206300  8.6811451951299698   T   T   T
  2.4911574212929000  0.6798558998681201  6.4204361207043794   T   T   T
  4.6356553246145404  7.2135602859646601  6.4236335735705392   T   T   T
  6.1107404741584812 -3.1670426197480603 10.7549204707635599   T   T   T
  8.4331593915744101  0.6437409463764003 10.7667081757035508   T   T   T
  5.3945053536076699  3.2162744965177108  2.1579151108657899   F   F   F
  4.7367827451245903  1.8929341298411804  6.3634607653815696   T   T   T
  0.8968121872041800  0.8176658750786000  2.1937165034335000   F   F   F
  8.4228321235846799 -4.3901963419970098  4.3156967431662601   F   F   F
  3.8445470305782399  3.2103225861230196 10.8205997957154789   T   T   T
  6.8564239223076600  0.7675099888142698  6.3351818562604789   T   T   T
  6.1356227118912896 -0.5778514772339595 10.6358807565593096   T   T   T
  5.3724638260750996 -1.9569204130638800  8.6391768757901790   T   T   T
  6.0935952325718601  4.5821175632111011 10.7889896799864999   T   T   T
  7.6199380028601311 -3.1006597598469803  8.6692779689424295   T   T   T
  1.6134839044131402  1.9979325539546697  4.2514379170770802   F   F   F
  3.1480787498679099  7.1447272161457995  8.5520697815568489   T   T   T
  1.6251287881074803  4.4878688234065001 10.7684777552547999   T   T   T
  2.5244236479335700  8.4391243164472804  6.4434925263716689   T   T   T
  7.7471469740312005 -0.6373747408694898  8.6475110451369392   T   T   T
  6.0658769865626896 -0.6223022271384696  4.2819153613005705   F   F   F
  1.7020397790307000  2.0125121914774797 10.7970925022052189   T   T   T
  0.9595842249556500  3.1978086636830199  2.1523024908612300   F   F   F
  5.4440889910585204  0.7936000579682300  2.2519617642376200   F   F   F
  6.8741074982509103  3.2192856073289491  6.4971730306229505   T   T   T
  1.6791027123013500  4.4816195442286206  4.2373647603219302   F   F   F
  3.9435925616849303  5.9177594686170805  4.2823214530728695   F   F   F
  6.1665792432630511 -3.1429049410442298  4.3616803968373299   F   F   F
  8.3451917617132008  0.6900651120962502  4.3264987074869001   F   F   F
  1.6980887735983499 -0.4470701319925000 10.8515865900040502   T   T   T
  3.1151989007517602  4.4977843761401193  2.1289823831296797   F   F   F
  3.1902740576796602  7.1966311137603798  2.0902851233782198   F   F   F
  4.5921041740839490 -0.6103457486729198  6.3758275292289701   T   T   T
  0.8394594905727499  3.2818330140843504  8.6583642654293502   T   T   T
  3.9812700776444299  0.7245642553148705  4.2940293809026295   F   F   F
  7.6989323742285105 -3.1720574853553498  2.1681879173235497   F   F   F
  0.1307788669466700  4.5514647268691499  6.5513743792981503   T   T   T
  4.0161242677612403 -1.9295502410908800  4.2625220104478796   F   F   F
  4.0887280798305898 -1.8956414667045103 10.6973437993301097   T   T   T
  0.9602688835060901  8.3424708272490093  8.6910496157774890   T   T   T
  4.0122445264919202  5.6780859290013614 10.8566224245382390   T   T   T
