Pt Pd Ni Co Fe 
 1.0000000000000000
     8.9645670000000006   -5.0970750000000002   -0.0554420000000000
     0.0644260000000000   10.3118449999999999    0.0416760000000000
    -0.0230490000000000    0.0365270000000000   22.9434980000000017
 Pt  Pd  Ni  Co  Fe 
  15  16  18  14  17
Selective dynamics
Cartesian
  5.3870828187918800  5.9518448315948005  2.1903580643572802   F   F   F
  8.4790048430567513 -1.7059171797724602 10.7568717471401811   T   T   T
  6.1334261218925299 -3.0372659213544297 10.8130747012260606   T   T   T
  0.0618338578083400  2.0177307296084996  6.5464881587297201   T   T   T
  5.5185434138083602  5.8746733147272394  8.5698429298964811   T   T   T
  2.4609009831891204  3.3229667894237398  6.4334812177443608   T   T   T
  3.1108389734638497  4.5765727658316395  2.2200361440076199   F   F   F
  5.4736043491441704  3.2765891183954396  2.1412797793182201   F   F   F
  8.4470684559094611 -4.3591712120676309 10.8327439438074400   T   T   T
  3.1995916448721404  7.1986250942275696  8.6460914028941609   T   T   T
  1.7240972492627002  2.0090247608398597  4.2132858029558804   F   F   F
  8.3948903863178916  3.2125248473095698  4.2107817997867807   F   F   F
  8.3363933556863898 -4.4341334078142900  4.2143548522103407   F   F   F
  0.8522005540190700  8.3635463985800502  8.5434138531709802   T   T   T
  0.9006119761137600  0.6985734476048400  8.6054384893860014   T   T   T
  8.3701622017010600  3.3107363228439701 10.7625321067752804   T   T   T
  5.3198535968514600  0.7027058501848499  2.1030956998902401   F   F   F
  3.1987569269626199  2.0127217066497796  8.5673095200612810   T   T   T
  1.6736407264430802  7.0842981431866399 10.9073856266470006   T   T   T
  3.8687409151890400 -1.7367835933812501 10.8319875243265606   T   T   T
  8.4049067444106988 -1.7706763441735101  4.3305708301336807   F   F   F
  6.0637577617478504  4.6083873160895603 10.8875832171144200   T   T   T
  6.1027964217414796 -0.5341592115453601  4.3462863305578407   F   F   F
  4.7520171578780603  7.1824640177095906  6.4617965347636410   T   T   T
  2.3401357838799499  5.9173062401269503  6.4699955729528211   T   T   T
  6.0542318846501599  1.9398167902574499 10.7931724370790416   T   T   T
  5.4929193873359701  3.2357207826552901  8.4974770892542608   T   T   T
  7.6388748138537608 -3.0928996619441702  2.0820915662532800   F   F   F
  3.8907452164992300 -1.9529003018489701  4.2754445050562202   F   F   F
  1.7044892512269501 -0.6570281212761000  4.2506117364040605   F   F   F
  7.6604480056419799 -0.4703623935913703  2.1224154197492004   F   F   F
  3.2007018612959501 -0.5578130667899499  8.5084591086595811   T   T   T
  0.9436131066630500  3.2758924776550398  2.1555366363757802   F   F   F
  8.3888177113566798  0.7648618275965700 10.5743858531895611   T   T   T
  4.7463762260176408  4.5332873622704701  6.3953444344004806   T   T   T
  6.1169048187337811  4.5605297816928605  4.3095715048250405   F   F   F
  3.9000825506956098  5.8301186427116996  4.3561074636363006   F   F   F
  8.4479339068853321  0.7504322492784800  4.3213217414425804   F   F   F
  3.8725306004438704  5.8081445984772202 10.7067231250526209   T   T   T
  1.6820086118226902  7.0628998684053306  4.3576128834506207   F   F   F
  0.1698751836760300  9.6792712046151408  6.4769730587503398   T   T   T
  3.1494343439458805  4.6024799290229801  8.6171343740855608   T   T   T
  6.0966042464075896 -3.1676756101544696  4.2979834548116607   F   F   F
  3.1206443418142205  7.2933173037391104  2.1258434527795602   F   F   F
  1.6849713137572402 -0.4989010605340000 10.7039145352964411   T   T   T
  0.0808219016987600  7.1030814207297199  6.4626804897081209   T   T   T
  0.9476342752742800  0.6020212442032500  2.0803049053747200   F   F   F
  2.4250625059837905  8.5368683432354100  6.5098446981721008   T   T   T
  2.4612290103714702  0.6808507175188698  6.4168800871010205   T   T   T
  3.9110449744960003  0.7808161282998097  4.2608044967819607   F   F   F
  4.5973332782184002 -0.4503424143793500  6.4814884014463212   T   T   T
  0.0296743645875300  4.6356006075509093  6.5837897667012202   T   T   T
  1.7830781691823401  2.0224720854759100 10.7120750067792407   T   T   T
  7.6811446307828302  4.6014615249748401  8.4624747654317805   T   T   T
  0.8683132079762701  3.4003388529062604  8.6264497078376614   T   T   T
  6.9439351509556202  5.8090100630098593  6.4248985349428409   T   T   T
  3.8198602071458705  0.6848556152374499 10.5976298872486616   T   T   T
  1.7168256748177704  4.5975282946533396 10.5786289251482604   T   T   T
  6.1355600455622712 -0.5189508943266304 10.5460669812559811   T   T   T
  1.6838353074473402  4.6500639295675796  4.3384246163743603   F   F   F
  4.7884018547229399  1.9797778717205698  6.2756414155798410   T   T   T
  0.8604260295628900  5.7739602343267000  8.6150166110736208   T   T   T
  7.6465878260712712  1.9030789793877996  8.4795877843736616   T   T   T
  6.9657351347737810  3.3749470249431597  6.4097062228730408   T   T   T
  6.1475578831355504  1.9961974845924599  4.2959753701033803   F   F   F
  6.9103031451556491  0.7844464122258402  6.4835671352073003   T   T   T
  5.3661599097773900  0.6388791976813800  8.5716178293744996   T   T   T
  3.7250742348484800  3.3465847293660698 10.7238635575698407   T   T   T
  6.8284250761685898 -1.7759266539581200  6.4600931709347407   T   T   T
  7.7419376633189003  2.0091791796972998  2.0305414884455204   F   F   F
  0.9495897264283101  5.8730926849553207  2.2589322638409404   F   F   F
  3.9220389167086398  3.3200706070967394  4.2947413434796404   F   F   F
  7.6802342235747503 -0.5000424927268701  8.6053330162623016   T   T   T
  5.4458207919587602 -1.7625547264576500  8.5831802306558007   T   T   T
  5.3476260759139098 -1.8655597480013597  2.1358807246250202   F   F   F
  0.9082608755440802  8.3550907069620202  2.1285184107234403   F   F   F
  3.0772893685651601 -0.5668594718032401  2.0913831529290401   F   F   F
  7.6122274213703909 -3.1073273843065201  8.6482482499934612   T   T   T
  7.7483230520549302  4.6192245030598604  2.0849841662146202   F   F   F
  3.0990653512511206  1.9524236310853897  2.0779178670889604   F   F   F
