Pt Pd Ni Co Fe 
 1.0000000000000000
     8.9645670000000006   -5.0970750000000002   -0.0554420000000000
     0.0644260000000000   10.3118449999999999    0.0416760000000000
    -0.0230490000000000    0.0365270000000000   22.9434980000000017
 Pt  Pd  Ni  Co  Fe 
  15  16  18  14  17
Selective dynamics
Cartesian
  5.3870828187918800  5.9518448315948005  2.1903580643572802   F   F   F
  8.4262344545266714 -1.8122852103802198 10.7542052425640211   T   T   T
  6.1003310366042900 -3.0127055727137999 10.7573909229317408   T   T   T
  0.1386142742484300  2.0614595246071903  6.5143482876349807   T   T   T
  5.3394103608440000  5.8774815633725304  8.6304040879177997   T   T   T
  2.3436497367093705  3.3361645014873695  6.4203076785424198   T   T   T
  3.1108389734638497  4.5765727658316395  2.2200361440076199   F   F   F
  5.4736043491441704  3.2765891183954396  2.1412797793182201   F   F   F
  8.4391764001554019 -4.4925201611452898 10.7838833228996798   T   T   T
  3.1250896086607698  7.1706772055462302  8.5588887381902996   T   T   T
  1.7240972492627002  2.0090247608398597  4.2132858029558804   F   F   F
  8.3948903863178916  3.2125248473095698  4.2107817997867807   F   F   F
  8.3363933556863898 -4.4341334078142900  4.2143548522103407   F   F   F
  0.9565005921966999  8.3582360536913001  8.6133725097866005   T   T   T
  0.9544223840269200  0.6356674083482300  8.6816316610138013   T   T   T
  8.4210039996872812  3.4616634320812700 10.8257594537985611   T   T   T
  5.3198535968514600  0.7027058501848499  2.1030956998902401   F   F   F
  3.2072704053537402  2.0531612295621895  8.6382457025696802   T   T   T
  1.6289304207360804  7.2746524383216995 10.7452515661714809   T   T   T
  3.7755807472858103 -1.8294363547586701 10.7174306017793803   T   T   T
  8.4049067444106988 -1.7706763441735101  4.3305708301336807   F   F   F
  6.1027013006556503  4.5348815897178900 10.7516120585287016   T   T   T
  6.1027964217414796 -0.5341592115453601  4.3462863305578407   F   F   F
  4.6444779173166504  7.2162286027500304  6.4664128609460612   T   T   T
  2.4199548709436098  5.9367894594229496  6.4558115681611010   T   T   T
  6.0934327334632510  2.0938026348230596 10.7147466511439404   T   T   T
  5.3774985993022115  3.3444297380244197  8.6797185591665400   T   T   T
  7.6388748138537608 -3.0928996619441702  2.0820915662532800   F   F   F
  3.8907452164992300 -1.9529003018489701  4.2754445050562202   F   F   F
  1.7044892512269501 -0.6570281212761000  4.2506117364040605   F   F   F
  7.6604480056419799 -0.4703623935913703  2.1224154197492004   F   F   F
  3.1057843804602503 -0.5950095652059002  8.5264152073516204   T   T   T
  0.9436131066630500  3.2758924776550398  2.1555366363757802   F   F   F
  8.3171736444425601  0.8212997285479200 10.7403664593734813   T   T   T
  4.6215063220163897  4.6655582709815411  6.4734703169334198   T   T   T
  6.1169048187337811  4.5605297816928605  4.3095715048250405   F   F   F
  3.9000825506956098  5.8301186427116996  4.3561074636363006   F   F   F
  8.4479339068853321  0.7504322492784800  4.3213217414425804   F   F   F
  3.9178508494550801  5.8487810030117195 10.7202757323722810   T   T   T
  1.6820086118226902  7.0628998684053306  4.3576128834506207   F   F   F
  0.2883501891312401  9.6733814025672995  6.5190587413836401   T   T   T
  3.1569408543016100  4.6979666394854700  8.5816130229176615   T   T   T
  6.0966042464075896 -3.1676756101544696  4.2979834548116607   F   F   F
  3.1206443418142205  7.2933173037391104  2.1258434527795602   F   F   F
  1.6183590327175401 -0.5189278019611001 10.8723764635475604   T   T   T
  0.2432440169573300  7.0314638532136300  6.5125252176142610   T   T   T
  0.9476342752742800  0.6020212442032500  2.0803049053747200   F   F   F
  2.5069025195471801  8.4352578997626715  6.5506414615521606   T   T   T
  2.4488954336939206  0.6403547052194997  6.4339704218709199   T   T   T
  3.9110449744960003  0.7808161282998097  4.2608044967819607   F   F   F
  4.5301433865812504 -0.5997862221372401  6.4107873433714602   T   T   T
  0.1686140820332200  4.6592165736700499  6.4523581929486804   T   T   T
  1.6053496337985900  2.0078486719279196 10.7812005135365414   T   T   T
  7.6030903650810604  4.5708152594337692  8.7248753384796416   T   T   T
  0.9286473692141001  3.4012449578939803  8.6693165755869614   T   T   T
  6.8914461243201304  5.9713309050766696  6.4490590502634202   T   T   T
  3.8772026904958401  0.7336100278054399 10.7828515208412803   T   T   T
  1.6506988192388099  4.5938610415201495 10.7502018933018206   T   T   T
  6.1131726908104911 -0.4828357251348701 10.7432163278496606   T   T   T
  1.6838353074473402  4.6500639295675796  4.3384246163743603   F   F   F
  4.6652120526477301  1.9068671009068294  6.4081204841585802   T   T   T
  0.9802386622647201  5.9388609267539891  8.5313865323790417   T   T   T
  7.6226066920873006  2.0670574279819389  8.6456494174815610   T   T   T
  6.9426032290808113  3.2101862113029793  6.4801068718935806   T   T   T
  6.1475578831355504  1.9961974845924599  4.2959753701033803   F   F   F
  6.9345548565532402  0.6882249137139397  6.4065352517388403   T   T   T
  5.4135449395656510  0.8104785131860398  8.6181373624381408   T   T   T
  3.9279501297149499  3.3229672108392307 10.7703580509580217   T   T   T
  6.8933245162726111 -1.7763953612534504  6.4023787531052996   T   T   T
  7.7419376633189003  2.0091791796972998  2.0305414884455204   F   F   F
  0.9495897264283101  5.8730926849553207  2.2589322638409404   F   F   F
  3.9220389167086398  3.3200706070967394  4.2947413434796404   F   F   F
  7.6066628004454397 -0.4245593646580498  8.5312929427279602   T   T   T
  5.2728099111229509 -1.7976774003489699  8.5108669849507006   T   T   T
  5.3476260759139098 -1.8655597480013597  2.1358807246250202   F   F   F
  0.9082608755440802  8.3550907069620202  2.1285184107234403   F   F   F
  3.0772893685651601 -0.5668594718032401  2.0913831529290401   F   F   F
  7.6156384664600010 -3.0803580371349808  8.5932193779817219   T   T   T
  7.7483230520549302  4.6192245030598604  2.0849841662146202   F   F   F
  3.0990653512511206  1.9524236310853897  2.0779178670889604   F   F   F
