Pt Pd Ni Co Fe 
 1.0000000000000000
     8.9788379999999997   -5.2082129999999998   -0.0213960000000000
    -0.0412480000000000   10.3512199999999996    0.0130200000000000
     0.0054110000000000    0.0005430000000000   22.9185650000000010
 Pt  Pd  Ni  Co  Fe 
  14  17  16  18  15
Selective dynamics
Cartesian
  7.6191840013762695  4.4918324191342300  8.5728812152837310   T   T   T
  3.8809237869324598  3.3537087888761201 10.7369128507388609   T   T   T
  3.0621347716487501  4.6440039495036096  8.5248441576648908   T   T   T
  3.0439076783316397  7.1017982821603605  8.6241780452542809   T   T   T
  0.1557781838239700  7.1278833975893701  6.5165448972003510   T   T   T
  6.9010012517262700 -1.8889028976809701  6.3486936939622902   T   T   T
  7.6009129494894196  4.6132075798908501  2.1552218073080400   F   F   F
  2.3267930256711598  8.4113397470390687  6.5418075986136603   T   T   T
  3.2118574091799204  7.1291979565156893  2.1541807410250602   F   F   F
  4.5933897899792493  1.9622404546944501  6.3599028250299510   T   T   T
  7.5582525043471298  1.9924428401966296  2.1785904164812702   F   F   F
  0.9157907676676700  5.8182674441230500  2.2292015144041701   F   F   F
  3.8992219582130900  3.3433551464980402  4.2189838639331700   F   F   F
  8.3820242546200507  0.7445601113423101 10.6674454426701910   T   T   T
  6.1011023341853301 -0.7165686312914098 10.7732604132475114   T   T   T
  0.1675715094052500  2.0667412662470697  6.4298576556201903   T   T   T
  7.5859761758406199 -3.2670358094877798  8.6657202898908992   T   T   T
  3.1466441412764499  1.9473228138803205  2.1664615543788899   F   F   F
  7.6881771205332301  2.0234245301195593  8.4928548471267096   T   T   T
  6.1181376193665793  1.9350524842200896 10.6970016371229217   T   T   T
  4.5632256701423595 -0.6380018156020402  6.4005904692590798   T   T   T
  1.6060573262232098  1.9518764454873201  4.2838041007964902   F   F   F
  6.8252787772761998  5.8265312324118606  6.3750491942942809   T   T   T
  5.4489530168765592  3.2627939562239603  8.5324999153089607   T   T   T
  7.5778232812093202 -0.7120675053215602  2.2097767403574804   F   F   F
  2.3733634269916899  0.6253078979102299  6.4118861289808695   T   T   T
  6.0855474699892493 -3.1798984762343299 10.7985093792758295   T   T   T
  3.1814502036198502 -0.6293723882927499  2.1491083189296298   F   F   F
  3.8896944169671901  0.5964493512377297 10.7591068691125304   T   T   T
  1.6285037957867998  7.1735624794022401  4.4164558931425200   F   F   F
  3.1472986813162196  1.9305031203444303  8.5566159677528404   T   T   T
  5.3806779675422405  0.6626019246464702  2.2360097222765400   F   F   F
  1.6080657396445299  4.6235905395515493 10.6102144039587909   T   T   T
  5.4346789406024598 -1.9706230782870600  2.1245341666486999   F   F   F
  3.9112373223580601  5.8733577496507587  4.2389657535399001   F   F   F
  2.3274382766589494  3.3565869490290399  6.4692300597485506   T   T   T
  5.2894999528584004  5.8287895549639401  8.6418081655091203   T   T   T
  0.9023673597659000  0.5858916006500900  8.5880894763078004   T   T   T
  3.9126539160597096  0.6116308844049601  4.2794181412363903   F   F   F
  1.5828247874675603  1.9566302409404301 10.7755859993742593   T   T   T
  8.3397206931362486 -4.5234432934256388  4.2202297694188902   F   F   F
  0.8403565851943899  3.2118160218449998  2.2117388787444701   F   F   F
  7.6709822893773696 -0.6003235362161099  8.5580949058572706   T   T   T
  2.2745878051547899  5.8222450607956793  6.4941148599172696   T   T   T
  1.6535418459916298 -0.6262523938456900  4.2691329113219307   F   F   F
  3.1377047227881198  4.5616972532853000  2.1519826502706798   F   F   F
  6.9065033297977596  3.2142416338613802  6.3530059111226400   T   T   T
  0.8624859980487899  8.3410781147530795  8.6122681407878705   T   T   T
  6.1398893831714600  4.5445905141834801  4.2460712249242203   F   F   F
  8.2418260444369107 -1.9348870744220605 10.7499416537760712   T   T   T
  1.5695747333478898  4.5429017749520391  4.3668567168710100   F   F   F
  3.8937519152241502  5.9768612066126190 10.6548233599570299   T   T   T
  5.3786190519869592  0.5925971814745000  8.6134260524285207   T   T   T
  8.3098294592862096 -1.9267845462439099  4.3023686438286299   F   F   F
  8.2736709251013796  3.2331483962339900  4.3164912169118397   F   F   F
  1.6804701243608302 -0.7209429013583201 10.7689297552447503   T   T   T
  5.3444390464836600  3.3720084525468805  2.1064798581237403   F   F   F
  0.1818835406741300  4.6087506089248800  6.4157261526456493   T   T   T
  4.5151023013457499  7.1277679895901906  6.3938545850398905   T   T   T
  3.9171044313602099 -1.9471633928849101 10.8206132561363120   T   T   T
  6.1647279563284201  4.6569321453576986 10.7874202176800598   T   T   T
  5.3497964444922799  5.8042587160604802  2.1768357338723199   F   F   F
  7.5947373436527492 -3.2104239970961892  2.2386521130934902   F   F   F
  0.1516430673653200  9.6286598194636390  6.3732303984135212   T   T   T
  5.2799883307840796 -1.9450283932482999  8.6686367171423218   T   T   T
  3.1041403465923003 -0.6692678374260101  8.5568302205098004   T   T   T
  4.5389795571409595  4.5660031418402909  6.4375159851793402   T   T   T
  0.9590984728285700  3.3487780201256001  8.5084856006844909   T   T   T
  3.9168476420779297 -1.8956478022700698  4.2550945243283502   F   F   F
  0.8955600578920400  0.6302141179633400  2.1746584184948401   F   F   F
  8.4005540600828894  0.5972304914798602  4.3202537573103301   F   F   F
  0.9254382733157799  5.9572707897370796  8.5023015325694207   T   T   T
  6.1333675015952505  2.0270191112707194  4.2554068076356906   F   F   F
  6.9344056924559192  0.6934935052547201  6.3497699109244801   T   T   T
  6.1766593521010593 -3.2632444910199094  4.1695804740393196   F   F   F
  8.3706543883355806  3.2739818087851802 10.6463003923132611   T   T   T
  8.3602341250131698 -4.5026464548940197 10.8061506872804500   T   T   T
  0.8864008493122700  8.4740832171745311  2.2039772637182500   F   F   F
  1.7131176110774402  7.1441812621572289 10.6449297052247402   T   T   T
  6.0545899712657496 -0.6603838256964599  4.2317364992277104   F   F   F
