Pt Pd Ni Co Fe 
 1.0000000000000000
     8.9921849999999992   -5.1708259999999999    0.0003830000000000
     0.0016270000000000   10.3507250000000006    0.0119590000000000
     0.0359360000000000   -0.0006580000000000   22.8809879999999986
 Pt  Pd  Ni  Co  Fe 
  13  17  15  18  17
Selective dynamics
Cartesian
  8.3749596583983514 -4.6141125874153994 10.8319573813026491   T   T   T
  7.5411235624411486 -3.3301324723427590  8.5918483065316096   T   T   T
  3.8926473941698796  5.8072417732380810  4.3159693871508402   F   F   F
  7.7076440764204284 -3.2047268840140397  2.1368646449592896   F   F   F
  0.8919659868102400  5.8528329833377999  2.1248445247008800   F   F   F
  0.9789444535930699  5.9401028814126908  8.4772283438603093   T   T   T
  1.6576189111875901  7.2081423158481899  4.3598324281079899   F   F   F
  0.9517646066896900  3.2815409960007003  8.5237480575241484   T   T   T
  3.9773681327746000  0.6476365179259401  4.3191660271896000   F   F   F
  5.4473876670448895  0.7737890760533004  8.6242445899223892   T   T   T
  7.6557971420999396 -0.5734152515454098  8.6209128585956805   T   T   T
  5.4411117875104091  5.8210938999505100  2.0539632878728500   F   F   F
  0.9179855932040499  0.5659404006583101  2.1948366375929700   F   F   F
  3.1589971930742298  1.9570752954331905  2.2057763772396699   F   F   F
  3.9242415209578292  3.3743232107132703 10.7720360905618300   T   T   T
  8.3692142989932492 -1.8356629976313601 10.9248638689144695   T   T   T
  4.6410295669673696 -0.6044492375007499  6.4756168719902494   T   T   T
  3.1946652639634698  2.0265821893938099  8.4991048394358302   T   T   T
  8.3354015116347302  0.6728052676950009  4.3933557916607500   F   F   F
  8.3555808804298710  3.3874788829637001  4.3573898495222103   F   F   F
  7.5869214052123093  2.0318949530575110  2.2021819905946298   F   F   F
  0.8654412381390100  0.5985902937747500  8.5037029610967299   T   T   T
  6.1964077481476094 -3.1190783578243599  4.2964789820698694   F   F   F
  3.1567828055951299  4.5495687760669901  2.1054256746403701   F   F   F
  7.5626759303705686 -0.6309004554191794  2.2138232657851096   F   F   F
  3.8842244420846397  0.6145662341815703 10.8933199015885389   T   T   T
  7.0067479037735998 -1.8940655526480601  6.4327552499106000   T   T   T
  3.1676335777014200  7.2656575427744201  2.0748226468853397   F   F   F
  4.6575451752147492  7.0943477027027306  6.5168770808666290   T   T   T
  3.1321434595357101 -0.7020627722938199  8.6140194040734102   T   T   T
  5.3489452949793694  0.6404161581209705  2.1746688008105699   F   F   F
  1.6331970066690500  2.0808703417138106  4.3142734083822498   F   F   F
  6.9133758074068794  0.7936549168722102  6.4798634715545393   T   T   T
  1.6824444913805099 -0.5879812704577599  4.3123802459680096   F   F   F
  1.7139446876115998  4.6861324761565903 10.6164813731348993   T   T   T
  0.1517266437495100  7.2229727551355207  6.4647127432293292   T   T   T
  6.2963836808496998  2.0750047157334399 10.6437563680778986   T   T   T
  6.0967505757705300  2.0481131500232497  4.3518079924116497   F   F   F
  3.2065261042743196  7.1321232419121907  8.5733129926240998   T   T   T
  4.7024482964900001  2.0745815351180399  6.3842230426848801   T   T   T
  4.6922465153576791  4.5170886210945103  6.4136289188560989   T   T   T
  1.6820961629554900  7.1869071876203305 10.5852159305875695   T   T   T
  2.4562365826773895  3.2955314152460202  6.3406446225797293   T   T   T
  7.6155071882749086  4.4299548131665309  8.5025818270491094   T   T   T
  0.2766277663532400  4.5383011105622204  6.3387241858575996   T   T   T
  7.0515583436508900  5.6963207290279199  6.4111708447866693   T   T   T
  1.5888384858101898 -0.7779186289744601 10.6275597222655698   T   T   T
  8.4733957988469406 -1.9554813751653397  4.3280409459418197   F   F   F
  2.3162713529046699  8.4666457909502100  6.4523569655435900   T   T   T
  5.4198874999243500  3.2605919067750810  2.2397988968063300   F   F   F
  0.8722627798854998  8.4523408897252992  8.5021587029043797   T   T   T
  3.9279280767473295 -1.8433371463407795  4.3025824200393092   F   F   F
  8.4861368119438687  3.2030966301481807 10.5525924455018103   T   T   T
  5.3772646774719695 -1.9832882698241101  8.7768161772802884   T   T   T
  0.2127282359404100  9.7151322411932206  6.4232713042809495   T   T   T
  3.9217457597715195  5.8821315449523501 10.5484914332063386   T   T   T
  0.2523547246917800  1.9945306863160501  6.3171447907062790   T   T   T
  6.1544526724893087 -0.5910355051598897  4.3944091723549903   F   F   F
  3.2586329540994798  4.6435640243464205  8.4641156938854394   T   T   T
  3.2305414529968393 -0.6061346283992899  2.1565068701422998   F   F   F
  8.4879737281750387  0.8361509578158813 10.6365625821466399   T   T   T
  2.4251046807312298  5.7950300088685998  6.4276709624413702   T   T   T
  7.6536786241495491  4.5593132993905909  2.1592722356552301   F   F   F
  5.3365590059757606  5.7882591472625702  8.5611848394274190   T   T   T
  8.5316893186543581 -4.4180042035717300  4.3640191432824595   F   F   F
  1.6234428884034497  4.5202056186275508  4.3087733152216501   F   F   F
  3.9307066611663797  3.2290883279509806  4.3158992361150998   F   F   F
  6.1906875525055396  4.5152663073761099 10.6089304906014394   T   T   T
  2.2995738647265802  0.7135463136854501  6.3378248790539597   T   T   T
  0.8926285312896399  3.2400570891270806  2.1798970517277199   F   F   F
  7.7142675039384798  2.0394384005143800  8.5639978405845998   T   T   T
  0.9083837285320299  8.4748166560484695  2.1273395105411499   F   F   F
  1.6201955285749801  1.9659969799195101 10.7103899519835206   T   T   T
  6.8763735141715490  3.2689111308280312  6.4666543658909097   T   T   T
  5.4079842273715188  3.3201771872135710  8.5276597086284589   T   T   T
  6.1181620477165088 -0.6062221188290796 10.7132082795272083   T   T   T
  3.8722163029823498 -2.0121599464936999 10.6968285943647690   T   T   T
  6.0588111172047503 -3.2267963850049401 10.7256105107649304   T   T   T
  5.3372487072223587 -1.8134821657717395  2.1674651996858398   F   F   F
  6.1501241100508990  4.5841447629953009  4.2725703926749796   F   F   F
