Pt Pd Ni Co Fe 
 1.0000000000000000
     8.9645670000000006   -5.0970750000000002   -0.0554420000000000
     0.0644260000000000   10.3118449999999999    0.0416760000000000
    -0.0230490000000000    0.0365270000000000   22.9434980000000017
 Pt  Pd  Ni  Co  Fe 
  15  16  18  14  17
Selective dynamics
Cartesian
  5.3870828187918800  5.9518448315948005  2.1903580643572802   F   F   F
  8.5520155927638513 -1.8263059820970300 10.7233133662322615   T   T   T
  6.2027744513662508 -3.1566275218609801 10.8011818761680605   T   T   T
  0.0821546394419600  2.0073148920734800  6.5313941098318802   T   T   T
  5.5528346335495309  5.8017985855480392  8.5413530790799008   T   T   T
  2.4970654108431707  3.2809295129706197  6.4288612707316206   T   T   T
  3.1108389734638497  4.5765727658316395  2.2200361440076199   F   F   F
  5.4736043491441704  3.2765891183954396  2.1412797793182201   F   F   F
  8.5166153287506710 -4.4789142165912903 10.7814419142246614   T   T   T
  3.2355959318185001  7.1196652465440602  8.6335965030951609   T   T   T
  1.7240972492627002  2.0090247608398597  4.2132858029558804   F   F   F
  8.3948903863178916  3.2125248473095698  4.2107817997867807   F   F   F
  8.3363933556863898 -4.4341334078142900  4.2143548522103407   F   F   F
  0.8943575603078600  8.2985662769991091  8.5204923601004001   T   T   T
  0.9593165025544500  0.6298013670754000  8.5484757319522213   T   T   T
  8.4428552744596299  3.1941963099830697 10.7594445703407011   T   T   T
  5.3198535968514600  0.7027058501848499  2.1030956998902401   F   F   F
  3.2725954213614603  1.9134641019290697  8.5200605498680400   T   T   T
  1.7408500895427199  6.9637568520742903 10.8853737227512397   T   T   T
  3.9357882001399704 -1.8536992799886503 10.8317492298172606   T   T   T
  8.4049067444106988 -1.7706763441735101  4.3305708301336807   F   F   F
  6.1279258735594500  4.4874344803105588 10.8309611857975021   T   T   T
  6.1027964217414796 -0.5341592115453601  4.3462863305578407   F   F   F
  4.7867296657607010  7.1650246889903606  6.4602205635820402   T   T   T
  2.3903934253939201  5.8764979199563303  6.4540322217095598   T   T   T
  6.1313964642646512  1.8246649044670495 10.6976027109158203   T   T   T
  5.5399793432759203  3.1577997391473498  8.4534989400718015   T   T   T
  7.6388748138537608 -3.0928996619441702  2.0820915662532800   F   F   F
  3.8907452164992300 -1.9529003018489701  4.2754445050562202   F   F   F
  1.7044892512269501 -0.6570281212761000  4.2506117364040605   F   F   F
  7.6604480056419799 -0.4703623935913703  2.1224154197492004   F   F   F
  3.2501731038837098 -0.6472618700784001  8.4679424124281013   T   T   T
  0.9436131066630500  3.2758924776550398  2.1555366363757802   F   F   F
  8.4636071313067109  0.6463358462853801 10.5457481102530206   T   T   T
  4.7712250995984204  4.5038641253477394  6.3761466934103606   T   T   T
  6.1169048187337811  4.5605297816928605  4.3095715048250405   F   F   F
  3.9000825506956098  5.8301186427116996  4.3561074636363006   F   F   F
  8.4479339068853321  0.7504322492784800  4.3213217414425804   F   F   F
  3.9356010636421903  5.6943383294855998 10.6819920355692215   T   T   T
  1.6820086118226902  7.0628998684053306  4.3576128834506207   F   F   F
  0.1988665542417400  9.6550299687420704  6.4630809246489198   T   T   T
  3.2015063354149800  4.5234397562894406  8.5946610721143220   T   T   T
  6.0966042464075896 -3.1676756101544696  4.2979834548116607   F   F   F
  3.1206443418142205  7.2933173037391104  2.1258434527795602   F   F   F
  1.7640817027328701 -0.6022036150832500 10.6346485998335805   T   T   T
  0.1396677863588700  7.0850753845463705  6.4273197836812201   T   T   T
  0.9476342752742800  0.6020212442032500  2.0803049053747200   F   F   F
  2.4464971120504901  8.4921951087829015  6.4885908714532201   T   T   T
  2.4761657161974706  0.6471956552540898  6.3844228227608202   T   T   T
  3.9110449744960003  0.7808161282998097  4.2608044967819607   F   F   F
  4.5903694237672097 -0.4786803951654499  6.4410555800309401   T   T   T
  0.1110293900268700  4.6137204522465698  6.5493592697065806   T   T   T
  1.8604341828132502  1.9108100544102098 10.6563746126383396   T   T   T
  7.7260153540142795  4.5374857379181606  8.4587280997492797   T   T   T
  0.9413537950876001  3.3221045191554195  8.6082129538882004   T   T   T
  6.9713637086901903  5.7812454639892303  6.4142634130324208   T   T   T
  3.9176867229134102  0.5673347476470803 10.5262545729555406   T   T   T
  1.7905340641096801  4.4766526998984402 10.5595685274186408   T   T   T
  6.2081630583441498 -0.6342479397280399 10.5140228815424610   T   T   T
  1.6838353074473402  4.6500639295675796  4.3384246163743603   F   F   F
  4.8174122036326308  1.9470534111002693  6.2576276048244610   T   T   T
  0.9084128529462601  5.7028568350076894  8.5885164469695212   T   T   T
  7.7055935366667407  1.8294459491768891  8.4490815370584809   T   T   T
  6.9977660407941107  3.3576548508556292  6.3991566547491399   T   T   T
  6.1475578831355504  1.9961974845924599  4.2959753701033803   F   F   F
  6.9963019522899792  0.7594481345756300  6.4441672097603213   T   T   T
  5.4558376496062611  0.5221530478717293  8.4668698534948810   T   T   T
  3.7999045318692604  3.2305698057555201 10.6679258147435601   T   T   T
  6.8385676728070210 -1.7449520849363305  6.4881687673429607   T   T   T
  7.7419376633189003  2.0091791796972998  2.0305414884455204   F   F   F
  0.9495897264283101  5.8730926849553207  2.2589322638409404   F   F   F
  3.9220389167086398  3.3200706070967394  4.2947413434796404   F   F   F
  7.7499149844401218 -0.5897297078086001  8.5772127092709205   T   T   T
  5.4572697842676696 -1.8680153453427502  8.6109307640579011   T   T   T
  5.3476260759139098 -1.8655597480013597  2.1358807246250202   F   F   F
  0.9082608755440802  8.3550907069620202  2.1285184107234403   F   F   F
  3.0772893685651601 -0.5668594718032401  2.0913831529290401   F   F   F
  7.6603083179319595 -3.1912399665499200  8.6183936484500006   T   T   T
  7.7483230520549302  4.6192245030598604  2.0849841662146202   F   F   F
  3.0990653512511206  1.9524236310853897  2.0779178670889604   F   F   F
