Pt Pd Ni Co Fe 
 1.0000000000000000
     8.9787920000000003   -5.1385339999999999   -0.0093560000000000
     0.0222510000000000   10.3219250000000002   -0.0044850000000000
     0.0100720000000000   -0.0211110000000000   22.9158259999999991
 Pt  Pd  Ni  Co  Fe 
  16  13  19  18  14
Selective dynamics
Cartesian
  3.1358049462566697 -0.7123201054236299  8.6232345891048290   T   T   T
  3.0842743610785703  4.5841960975778102  8.7320396978998893   T   T   T
  5.3372877350185002  5.9434813926948307  2.1791862312513199   F   F   F
  0.7960951573150600  0.6963330326836901  8.7426995625461590   T   T   T
  1.7219911981660601  7.0751749090594505  4.2289121402941996   F   F   F
  1.7244096329574901 -0.5143786820993000  4.3782869323255502   F   F   F
  5.4759556901091599  0.5591585638162601  8.4998609003030410   T   T   T
  2.4281492930081900  5.8793147967479999  6.4489483828274494   T   T   T
  8.3989128789164997 -1.8868019131382399  4.3369656515561399   F   F   F
  0.9688650814886399  8.4337636250947909  2.0894744533008600   F   F   F
  1.8297913884517800  7.1023783102077100 10.8229945106624399   T   T   T
  8.3651391952035699 -1.8759611246350802 10.8087875383034291   T   T   T
  7.6758138994918506  4.6200519618077900  2.1505394637656101   F   F   F
  0.2390475250497100  9.7170846130860706  6.5425098377306306   T   T   T
  4.6888498130805596  4.5219411075682805  6.4684898807131193   T   T   T
  3.2453349552010100 -0.5314909634037700  2.1547785200247698   F   F   F
  0.1272502956942800  7.0735691682169000  6.5187936188271989   T   T   T
  6.8480478843530008 -1.7643216966150401  6.5336806252872393   T   T   T
  2.3326805054650599  3.1944838252019401  6.4322130098342596   T   T   T
  8.3843604063642285  3.2815850078319109  4.3302001303389899   F   F   F
  3.1293300693654507  1.9387635673586199  8.6511893338378290   T   T   T
  8.4124132346129308  3.3374015331511995 10.9208170997177501   T   T   T
  7.6227324230839200 -0.5350896981707797  2.2199379603718796   F   F   F
  5.4402478800930103  3.2455405590449304  8.7009477056857687   T   T   T
  5.4376859319213509  5.9081090037932400  8.6978579978682102   T   T   T
  6.1627263706206401  4.5891732348985403  4.3116538746887603   F   F   F
  7.7088707495300000  1.9342214951791294  8.6886840179444196   T   T   T
  6.9495449560026010  5.9263889258709703  6.5014583986543801   T   T   T
  3.8560164411592406  3.2159472744661106  4.2542465468787398   F   F   F
  7.6739539904688003  4.5428408190766305  8.6672595027478199   T   T   T
  0.1675312011533600  1.9956979676425701  6.4813287784529798   T   T   T
  6.1654137533889903  1.8993938251665110  4.3126755571227893   F   F   F
  3.1288933299440500  2.0286337881834302  2.1485921076319698   F   F   F
  3.9547602716192798  0.6345750857938698 10.7495006171259799   T   T   T
  6.0309319027817203  1.9300233191906400 10.8045428906483600   T   T   T
  0.9479736934168801  5.7539872856298198  2.2229864793322798   F   F   F
  8.2733784266055395 -4.4233078363438603 10.7577540705938599   T   T   T
  7.6029622334597402  1.9888524210135303  2.1857771310301199   F   F   F
  5.3938803509452597 -1.8589501865470197  2.2148282273850199   F   F   F
  0.8910608122116601  5.7844364065546898  8.6929726301799590   T   T   T
  2.4981437868996799  0.6776617986734401  6.4205046007849598   T   T   T
  4.6373685907722315  7.2142353761518407  6.4259838418094102   T   T   T
  6.1165411392760296 -3.1699577892289499 10.7621162387679501   T   T   T
  8.4244557483185805  0.6469278161214999 10.7759730358193000   T   T   T
  5.3945053536076699  3.2162744965177108  2.1579151108657899   F   F   F
  4.7370275865283400  1.8901292006646200  6.3668795567645793   T   T   T
  0.8968121872041800  0.8176658750786000  2.1937165034335000   F   F   F
  8.4228321235846799 -4.3901963419970098  4.3156967431662601   F   F   F
  3.8382773790651603  3.2054230517729798 10.8261459993343188   T   T   T
  6.8574363223327293  0.7703378884983203  6.3387945316076291   T   T   T
  6.1311909862621397 -0.5882926980214997 10.6537045976239000   T   T   T
  5.3803747745195514 -1.9606378423672801  8.6492725596635296   T   T   T
  6.1052908445741894  4.5781107795571101 10.7962594421947902   T   T   T
  7.6178339234292709 -3.1021148810503902  8.6818824952019895   T   T   T
  1.6134839044131402  1.9979325539546697  4.2514379170770802   F   F   F
  3.1456608719702199  7.1409911794124596  8.5583871350449403   T   T   T
  1.6291039830417100  4.4923366848717396 10.7783403207118091   T   T   T
  2.5251894632378202  8.4416546155449215  6.4445030972745796   T   T   T
  7.7463643876167714 -0.6370975464366702  8.6528364273577694   T   T   T
  6.0658769865626896 -0.6223022271384696  4.2819153613005705   F   F   F
  1.7015597120043500  2.0089228286474401 10.8052355192628085   T   T   T
  0.9595842249556500  3.1978086636830199  2.1523024908612300   F   F   F
  5.4440889910585204  0.7936000579682300  2.2519617642376200   F   F   F
  6.8762326826224003  3.2170719531245910  6.5012133700064592   T   T   T
  1.6791027123013500  4.4816195442286206  4.2373647603219302   F   F   F
  3.9435925616849303  5.9177594686170805  4.2823214530728695   F   F   F
  6.1665792432630511 -3.1429049410442298  4.3616803968373299   F   F   F
  8.3451917617132008  0.6900651120962502  4.3264987074869001   F   F   F
  1.7077086279574201 -0.4416795074196100 10.8653080685709593   T   T   T
  3.1151989007517602  4.4977843761401193  2.1289823831296797   F   F   F
  3.1902740576796602  7.1966311137603798  2.0902851233782198   F   F   F
  4.5959590451223598 -0.6085146773198999  6.3860557498787998   T   T   T
  0.8353097299307800  3.2813495873366501  8.6624788610113992   T   T   T
  3.9812700776444299  0.7245642553148705  4.2940293809026295   F   F   F
  7.6989323742285105 -3.1720574853553498  2.1681879173235497   F   F   F
  0.1301672126640300  4.5522265362611405  6.5538009377858097   T   T   T
  4.0161242677612403 -1.9295502410908800  4.2625220104478796   F   F   F
  4.0880072042664102 -1.8980199958639501 10.7073801390768484   T   T   T
  0.9608641494094501  8.3496195981261305  8.6902510410851708   T   T   T
  4.0179447379007911  5.6685915896385302 10.8683727046104686   T   T   T
