Pt Pd Ni Co Fe 
 1.0000000000000000
     8.9645670000000006   -5.0970750000000002   -0.0554420000000000
     0.0644260000000000   10.3118449999999999    0.0416760000000000
    -0.0230490000000000    0.0365270000000000   22.9434980000000017
 Pt  Pd  Ni  Co  Fe 
  15  16  18  14  17
Selective dynamics
Cartesian
  5.3870828187918800  5.9518448315948005  2.1903580643572802   F   F   F
  8.5129380932038803 -1.7560434217093803 10.7420292741808812   T   T   T
  6.1680353324026500 -3.0826782796986905 10.8189718168312616   T   T   T
  0.0701158657171000  2.0194425772032298  6.5370526360334003   T   T   T
  5.5234216983591811  5.8550700222701195  8.5566939788087204   T   T   T
  2.4666034994350103  3.3174842508604296  6.4322568701301810   T   T   T
  3.1108389734638497  4.5765727658316395  2.2200361440076199   F   F   F
  5.4736043491441704  3.2765891183954396  2.1412797793182201   F   F   F
  8.4823443040670803 -4.4122897266674803 10.8079074580094403   T   T   T
  3.2062953044794900  7.1654287154592993  8.6316354442583805   T   T   T
  1.7240972492627002  2.0090247608398597  4.2132858029558804   F   F   F
  8.3948903863178916  3.2125248473095698  4.2107817997867807   F   F   F
  8.3363933556863898 -4.4341334078142900  4.2143548522103407   F   F   F
  0.8662124276290500  8.3384237036386804  8.5063449506050208   T   T   T
  0.9371561123399101  0.6626940396678599  8.5701593980506203   T   T   T
  8.3873622154135212  3.2650611870582495 10.7300477207346798   T   T   T
  5.3198535968514600  0.7027058501848499  2.1030956998902401   F   F   F
  3.2425991526899405  1.9615810048805895  8.5210264654348009   T   T   T
  1.6886952541973801  7.0462146416389793 10.8753357279264407   T   T   T
  3.8973088599872501 -1.7863118121377599 10.8261959758914212   T   T   T
  8.4049067444106988 -1.7706763441735101  4.3305708301336807   F   F   F
  6.0810993890385108  4.5621487134544791 10.8604835280679008   T   T   T
  6.1027964217414796 -0.5341592115453601  4.3462863305578407   F   F   F
  4.7614566075026401  7.1825339670474602  6.4686996799915208   T   T   T
  2.3519415640431607  5.9130504067600294  6.4629093862364000   T   T   T
  6.0760907505275803  1.8981671028074703 10.7264486061104396   T   T   T
  5.5122139326780708  3.2102095100781600  8.4585465571766196   T   T   T
  7.6388748138537608 -3.0928996619441702  2.0820915662532800   F   F   F
  3.8907452164992300 -1.9529003018489701  4.2754445050562202   F   F   F
  1.7044892512269501 -0.6570281212761000  4.2506117364040605   F   F   F
  7.6604480056419799 -0.4703623935913703  2.1224154197492004   F   F   F
  3.2303766117769301 -0.6051727434710202  8.4683425490907016   T   T   T
  0.9436131066630500  3.2758924776550398  2.1555366363757802   F   F   F
  8.4116431359343018  0.7135403578168292 10.5570541102130804   T   T   T
  4.7540703388633103  4.5359845185511789  6.3774202230392607   T   T   T
  6.1169048187337811  4.5605297816928605  4.3095715048250405   F   F   F
  3.9000825506956098  5.8301186427116996  4.3561074636363006   F   F   F
  8.4479339068853321  0.7504322492784800  4.3213217414425804   F   F   F
  3.8951679416717706  5.7815669587054996 10.7011125566060610   T   T   T
  1.6820086118226902  7.0628998684053306  4.3576128834506207   F   F   F
  0.1705494284866200  9.6768086011415111  6.4611217848711213   T   T   T
  3.1651308072125404  4.5712035706896792  8.6021594904375203   T   T   T
  6.0966042464075896 -3.1676756101544696  4.2979834548116607   F   F   F
  3.1206443418142205  7.2933173037391104  2.1258434527795602   F   F   F
  1.7225805862204100 -0.5391469863603602 10.6649061641942602   T   T   T
  0.1006900576584400  7.1013073710514494  6.4344401318978397   T   T   T
  0.9476342752742800  0.6020212442032500  2.0803049053747200   F   F   F
  2.4367896859015499  8.5309773599027707  6.4920339942855012   T   T   T
  2.4690802725389203  0.6751854640314098  6.3869905428012403   T   T   T
  3.9110449744960003  0.7808161282998097  4.2608044967819607   F   F   F
  4.6207962687467710 -0.4331823919388705  6.4620352774897007   T   T   T
  0.0530474785720900  4.6305194470998003  6.5603836067322208   T   T   T
  1.8131253146079602  1.9789423939133297 10.6581049820097604   T   T   T
  7.7000455565187105  4.5884623806471092  8.4504849829492610   T   T   T
  0.9033858498384401  3.3606220517086798  8.6170498882999205   T   T   T
  6.9510026855222202  5.8097863892701698  6.4242922492246404   T   T   T
  3.8534329554065203  0.6385462276925400 10.5592388474441616   T   T   T
  1.7469879254971501  4.5555202434897302 10.5712373945829015   T   T   T
  6.1658727568676408 -0.5616295186645803 10.5289162084739605   T   T   T
  1.6838353074473402  4.6500639295675796  4.3384246163743603   F   F   F
  4.7749319040420399  1.9796302750427599  6.2574753457899206   T   T   T
  0.8665438737717500  5.7369210495051002  8.6023015389582209   T   T   T
  7.6604657618594896  1.8738098266434700  8.4580940933679809   T   T   T
  6.9717937710024005  3.3727284054269799  6.3882942906419604   T   T   T
  6.1475578831355504  1.9961974845924599  4.2959753701033803   F   F   F
  6.9484309108768203  0.7873560075098901  6.4496714412148011   T   T   T
  5.4183045230106304  0.5859329437410198  8.5128873352639793   T   T   T
  3.7530311642092302  3.3074253375525489 10.6638355321995402   T   T   T
  6.8309484409651002 -1.7701370249242401  6.4761130736184009   T   T   T
  7.7419376633189003  2.0091791796972998  2.0305414884455204   F   F   F
  0.9495897264283101  5.8730926849553207  2.2589322638409404   F   F   F
  3.9220389167086398  3.3200706070967394  4.2947413434796404   F   F   F
  7.7093887807621604 -0.5444607302348504  8.5820345331753209   T   T   T
  5.4384949921173202 -1.8160145828734302  8.6123060803865616   T   T   T
  5.3476260759139098 -1.8655597480013597  2.1358807246250202   F   F   F
  0.9082608755440802  8.3550907069620202  2.1285184107234403   F   F   F
  3.0772893685651601 -0.5668594718032401  2.0913831529290401   F   F   F
  7.6369548423629707 -3.1500251293708299  8.6441719101195407   T   T   T
  7.7483230520549302  4.6192245030598604  2.0849841662146202   F   F   F
  3.0990653512511206  1.9524236310853897  2.0779178670889604   F   F   F
