Pt Pd Ni Co Fe 
 1.0000000000000000
     8.9645670000000006   -5.0970750000000002   -0.0554420000000000
     0.0644260000000000   10.3118449999999999    0.0416760000000000
    -0.0230490000000000    0.0365270000000000   22.9434980000000017
 Pt  Pd  Ni  Co  Fe 
  15  16  18  14  17
Selective dynamics
Cartesian
  5.3870828187918800  5.9518448315948005  2.1903580643572802   F   F   F
  8.5003621850841302 -1.7252243078162199 10.7482632854201423   T   T   T
  6.1581641728599097 -3.0581434648736798 10.8172624078568997   T   T   T
  0.0605719255348300  2.0221038559878299  6.5462238059233009   T   T   T
  5.5264102739881000  5.8613361218818296  8.5668632562228400   T   T   T
  2.4580908516841102  3.3224666384301096  6.4329935753409000   T   T   T
  3.1108389734638497  4.5765727658316395  2.2200361440076199   F   F   F
  5.4736043491441704  3.2765891183954396  2.1412797793182201   F   F   F
  8.4672555251769897 -4.3845460169213499 10.8256965941505019   T   T   T
  3.2030113075747604  7.1822187283972703  8.6413310295499599   T   T   T
  1.7240972492627002  2.0090247608398597  4.2132858029558804   F   F   F
  8.3948903863178916  3.2125248473095698  4.2107817997867807   F   F   F
  8.3363933556863898 -4.4341334078142900  4.2143548522103407   F   F   F
  0.8517469571682301  8.3491573777343504  8.5077721109381006   T   T   T
  0.9193909891568701  0.6717751469214599  8.5852183913436200   T   T   T
  8.3696601145988510  3.2914198069575096 10.7352762405621007   T   T   T
  5.3198535968514600  0.7027058501848499  2.1030956998902401   F   F   F
  3.2253604820121407  1.9875835037325498  8.5404387075188009   T   T   T
  1.6770876464884301  7.0735773094489502 10.8958084190241014   T   T   T
  3.8827759047208099 -1.7600605877315303 10.8266031075101417   T   T   T
  8.4049067444106988 -1.7706763441735101  4.3305708301336807   F   F   F
  6.0590996051076313  4.5820097592401794 10.8710083624147007   T   T   T
  6.1027964217414796 -0.5341592115453601  4.3462863305578407   F   F   F
  4.7528959837002196  7.1838217506252500  6.4681534756317207   T   T   T
  2.3414016912855602  5.9150334421296202  6.4651853704978013   T   T   T
  6.0500255485334904  1.9233333340915197 10.7583594585110607   T   T   T
  5.5029521480584496  3.2193575240464996  8.4754730510773406   T   T   T
  7.6388748138537608 -3.0928996619441702  2.0820915662532800   F   F   F
  3.8907452164992300 -1.9529003018489701  4.2754445050562202   F   F   F
  1.7044892512269501 -0.6570281212761000  4.2506117364040605   F   F   F
  7.6604480056419799 -0.4703623935913703  2.1224154197492004   F   F   F
  3.2148198411637310 -0.5748195643963302  8.4879355169385811   T   T   T
  0.9436131066630500  3.2758924776550398  2.1555366363757802   F   F   F
  8.3983450110276117  0.7483549654907906 10.5660832977120620   T   T   T
  4.7405613165479705  4.5380848659908999  6.3844835935442203   T   T   T
  6.1169048187337811  4.5605297816928605  4.3095715048250405   F   F   F
  3.9000825506956098  5.8301186427116996  4.3561074636363006   F   F   F
  8.4479339068853321  0.7504322492784800  4.3213217414425804   F   F   F
  3.8789923368663404  5.8022469032879398 10.7057623558695614   T   T   T
  1.6820086118226902  7.0628998684053306  4.3576128834506207   F   F   F
  0.1726483883432100  9.6892336340252410  6.4654921897372599   T   T   T
  3.1599607673395300  4.5948000369460402  8.6063107115088613   T   T   T
  6.0966042464075896 -3.1676756101544696  4.2979834548116607   F   F   F
  3.1206443418142205  7.2933173037391104  2.1258434527795602   F   F   F
  1.7072725498684000 -0.5191778263049700 10.6808240316806806   T   T   T
  0.0877017092002300  7.1067654136434104  6.4419239863946602   T   T   T
  0.9476342752742800  0.6020212442032500  2.0803049053747200   F   F   F
  2.4348683638420603  8.5404194247116703  6.4952953224084009   T   T   T
  2.4693317794479803  0.6863606537637301  6.3996666457670397   T   T   T
  3.9110449744960003  0.7808161282998097  4.2608044967819607   F   F   F
  4.6167496500468008 -0.4299389615655205  6.4755077398192409   T   T   T
  0.0336122153221400  4.6351920267057398  6.5707626496252400   T   T   T
  1.7919142221105302  2.0060938138885103 10.6732287651260602   T   T   T
  7.6907762178844203  4.5947988085248399  8.4527432319351608   T   T   T
  0.8807793183970601  3.3815596092433999  8.6333530558774001   T   T   T
  6.9451045348684897  5.8084776583559696  6.4259284179499403   T   T   T
  3.8322008187770704  0.6679021344872399 10.5687863677122600   T   T   T
  1.7374407582344000  4.5789532008655307 10.5776916576095203   T   T   T
  6.1467520186886802 -0.5359181514371304 10.5405297176047608   T   T   T
  1.6838353074473402  4.6500639295675796  4.3384246163743603   F   F   F
  4.7725837101225403  1.9953872028179094  6.2626671452960396   T   T   T
  0.8624724085168900  5.7659883335496698  8.5999693168011007   T   T   T
  7.6590731867953599  1.8828161554877192  8.4669761423734009   T   T   T
  6.9630718728889596  3.3814527074613294  6.4077391235227612   T   T   T
  6.1475578831355504  1.9961974845924599  4.2959753701033803   F   F   F
  6.9243099685540406  0.7829406285705000  6.4612490509883198   T   T   T
  5.3873237265081011  0.6081897636900999  8.5333174762663209   T   T   T
  3.7379192164194301  3.3336417891143695 10.6816603053350203   T   T   T
  6.8195087059534716 -1.7810973922609001  6.4664197472683407   T   T   T
  7.7419376633189003  2.0091791796972998  2.0305414884455204   F   F   F
  0.9495897264283101  5.8730926849553207  2.2589322638409404   F   F   F
  3.9220389167086398  3.3200706070967394  4.2947413434796404   F   F   F
  7.6897769116423209 -0.5180782766290203  8.5939002306426406   T   T   T
  5.4425098661522711 -1.7977267903348102  8.6072694165037813   T   T   T
  5.3476260759139098 -1.8655597480013597  2.1358807246250202   F   F   F
  0.9082608755440802  8.3550907069620202  2.1285184107234403   F   F   F
  3.0772893685651601 -0.5668594718032401  2.0913831529290401   F   F   F
  7.6330607649378912 -3.1306269310506507  8.6495804365980202   T   T   T
  7.7483230520549302  4.6192245030598604  2.0849841662146202   F   F   F
  3.0990653512511206  1.9524236310853897  2.0779178670889604   F   F   F
