Pt Pd Ni Co Fe 
 1.0000000000000000
     9.0348150000000000   -5.1878500000000001   -0.0082870000000000
    -0.0577960000000000   10.2815770000000004   -0.0342180000000000
    -0.0094090000000000   -0.0583070000000000   22.9315239999999996
 Pt  Pd  Ni  Co  Fe 
  17  17  16  16  14
Selective dynamics
Cartesian
  4.5999092902642991  7.0848713978544513  6.4874054209861303   T   T   T
  2.2677030487428302  8.3805274262434395  6.3845542022252797   T   T   T
  3.8239752783414902  5.8870920654534213  4.1796454859345005   F   F   F
  8.3859637510690703 -1.9815607092418397  4.2504054727682599   F   F   F
  6.1799395594607409  1.9222638503802698 10.7146050531949104   T   T   T
  5.3417601958567298 -1.8742766868847598  2.2315170744380901   F   F   F
  1.5626249473600902  7.1090815266377207 10.8586681181988993   T   T   T
  3.8574914269446499  0.6376430372334999 10.8227282506943290   T   T   T
  0.1700337799318100  4.4867646277886806  6.4625822311347694   T   T   T
  3.8303538491239797  3.2111309604918401  4.1806483240697005   F   F   F
  4.6014207488342898  4.3629638803975705  6.5125531439688498   T   T   T
  5.4058082064786301 -1.9697608346729596  8.7569984190518504   T   T   T
  7.7144308625757603  2.0553405409815801  2.1166878407740000   F   F   F
  6.9427327519313007  5.7126628011722502  6.5366810876971098   T   T   T
  0.9549652661722100  5.8279637339213304  2.0495320194363402   F   F   F
  8.5061127848411608 -4.5936905434795205  4.2084181779746697   F   F   F
  0.8260520263205300  0.7121174323067400  8.6168565275381503   T   T   T
  3.0130707060930204  1.8846078006032601  2.0489648081850600   F   F   F
  6.9186264515672189 -1.9263240788895899  6.5277744592391400   T   T   T
  3.8223762339042402  5.6184981801964691 10.8448967221501800   T   T   T
  7.6700937781329408 -0.6443774681683297  2.1284115150151899   F   F   F
  3.1306109484173898 -0.6347029433780299  8.6385763895031094   T   T   T
  3.8704313055416901  0.5406607942746700  4.2460580712174405   F   F   F
  6.9232192243021400  3.0677569742941704  6.4349882669852807   T   T   T
  0.9113250708735801  5.8273528457014407  8.6463994149084797   T   T   T
  8.4002501328315304  0.6999976181998903  4.3223185989599395   F   F   F
  2.3832789016579299  0.7304289607408401  6.4163913809384896   T   T   T
  8.4862800402643295 -4.5756691893038592 10.9559081605664002   T   T   T
  5.4135491881258497  5.8045102062469507  2.0249934280727899   F   F   F
  6.1836377157977802  4.4653066085956405  4.2197673472265400   F   F   F
  6.1761746097502099 -3.2573684842885200 10.9888892068173796   T   T   T
  2.3502830664821999  5.7750268152644004  6.4278521324749303   T   T   T
  5.3783086565193203  3.2087141688729601  2.0195530144979901   F   F   F
  7.6732479106074498 -0.6237633108535496  8.7156373228633601   T   T   T
  1.6495142719320199 -0.6720939292419901  4.2427020483958602   F   F   F
  0.9206866733889000  8.4574018685521004  2.0792267786469401   F   F   F
  8.4953478535721008  3.1963075534456000  4.2684233849435795   F   F   F
  8.3789704790751589  0.5893189915112305 10.8125725051014197   T   T   T
  5.3847502469268598  0.6350913278920304  2.1369248363284901   F   F   F
  3.0419857766422003  7.1774459294310002  2.0790778569808896   F   F   F
  7.7322861009001196  4.5563589669944609  1.9888086998149499   F   F   F
  6.8535013324494107  0.6245967236533303  6.4617619164033799   T   T   T
  8.4152810034270917  3.1218180002749705 10.6164446643076502   T   T   T
  3.8947391445540398 -1.9288468570065298  4.3320373152628395   F   F   F
  6.1469776693832205  1.8416134760028604  4.2500179884952596   F   F   F
  7.6152068741337402  4.4219428680939208  8.6839339643212998   T   T   T
  6.1211557056396195 -0.7005982898245897  4.4206661391918693   F   F   F
  0.8906570835045601  0.6256791597498300  2.0793729537431100   F   F   F
  0.1850598536333700  1.9225378548313601  6.4159956446390396   T   T   T
  8.4370816519371399 -1.9654418018263795 10.7247460000379498   T   T   T
  0.0653025513844900  7.1283270263670211  6.4737583441751596   T   T   T
  3.1239877744683899  4.5492304115447197  1.9659857730685597   F   F   F
  0.8885769102528900  3.2106242961704199  2.0994919287167799   F   F   F
  1.6343653775935298 -0.6829896935971099 10.6918346310496908   T   T   T
  3.2353546928918404  2.0501747746736703  8.5666002537390202   T   T   T
  1.6028032878885099  7.1660965421379306  4.2033323918114096   F   F   F
  5.3392287275573906  5.6654618000171704  8.6905197650526311   T   T   T
  1.6074005403529301  1.9284635342836900  4.2163495196929004   F   F   F
  6.1517854720181893 -0.6454134661228303 10.7968544590573892   T   T   T
  2.3453556564849602  3.1802932175717800  6.3908521536000595   T   T   T
  0.9841868215412298  3.2264138132306903  8.5771378387438606   T   T   T
  7.6581021676483996  1.9444948440361507  8.5819698143082199   T   T   T
  4.6759411474869195  1.8092545467767605  6.5207711029033897   T   T   T
  5.3903772567552801  0.7104783377713403  8.5146054715477089   T   T   T
  1.6124767784393501  4.4699709529254505  4.1552772139421403   F   F   F
  0.7251212732198701  8.3848942754871594  8.5412574976998705   T   T   T
  3.8535235887361101 -1.9351451180881201 10.8878714238955503   T   T   T
  4.7049526645717101 -0.6032340626872202  6.4560848798073094   T   T   T
  3.0884936185949003 -0.6639246783699999  2.1129912140466800   F   F   F
  7.7773238895991099 -3.2655852651236201  2.0687029635728997   F   F   F
  3.1393795566006197  7.0441895498381601  8.7426095912623207   T   T   T
  3.8140299080709301  3.1249790797737891 10.6716821262429598   T   T   T
  1.4670906684072302  4.4318559233163910 10.7019945088580801   T   T   T
  1.6285409160727300  2.0024356143658903 10.7050811043638792   T   T   T
  7.6444474766809201 -3.2985363054775396  8.7378036801496091   T   T   T
  3.1426747393111398  4.3690308031031204  8.5858797992335010   T   T   T
  6.1386309054624002 -3.1809642628565000  4.4083608787354303   F   F   F
  6.1596360365447600  4.4621441963615309 10.6188073633997693   T   T   T
  0.0969283569695500  9.5992770447533999  6.4275119091646502   T   T   T
  5.4509627480594398  3.1276334936182204  8.5659239658542194   T   T   T
