Pt Pd Ni Co Fe 
 1.0000000000000000
     8.9787920000000003   -5.1385339999999999   -0.0093560000000000
     0.0222510000000000   10.3219250000000002   -0.0044850000000000
     0.0100720000000000   -0.0211110000000000   22.9158259999999991
 Pt  Pd  Ni  Co  Fe 
  16  13  19  18  14
Selective dynamics
Cartesian
  3.1365837229587301 -0.7089552444365899  8.6100252813990910   T   T   T
  3.0880332905105501  4.5872546455400602  8.7146461459100895   T   T   T
  5.3372877350185002  5.9434813926948307  2.1791862312513199   F   F   F
  0.7975236396863000  0.6949461565069500  8.7083213668431991   T   T   T
  1.7219911981660601  7.0751749090594505  4.2289121402941996   F   F   F
  1.7244096329574901 -0.5143786820993000  4.3782869323255502   F   F   F
  5.4665791172848106  0.5661064242569801  8.4811058189604704   T   T   T
  2.4229229651198101  5.8792452483831399  6.4397755269341097   T   T   T
  8.3989128789164997 -1.8868019131382399  4.3369656515561399   F   F   F
  0.9688650814886399  8.4337636250947909  2.0894744533008600   F   F   F
  1.8126343964669900  7.0890836080910509 10.8042334492715497   T   T   T
  8.3604292353200620 -1.8870126877967801 10.7825613601007788   T   T   T
  7.6758138994918506  4.6200519618077900  2.1505394637656101   F   F   F
  0.2351389890279100  9.7069788644414299  6.5303449753966696   T   T   T
  4.6747404698058403  4.5341685363773703  6.4551957967005791   T   T   T
  3.2453349552010100 -0.5314909634037700  2.1547785200247698   F   F   F
  0.1177763579526900  7.0699390719311905  6.5113643372810097   T   T   T
  6.8415795246660203 -1.7712070236882798  6.5258423478479797   T   T   T
  2.3262102586523108  3.1980149454284303  6.4280821438250699   T   T   T
  8.3843604063642285  3.2815850078319109  4.3302001303389899   F   F   F
  3.1349834229634501  1.9500900109121899  8.6402282018000101   T   T   T
  8.3866787339071305  3.3445310485131809 10.8884542952992707   T   T   T
  7.6227324230839200 -0.5350896981707797  2.2199379603718796   F   F   F
  5.4367876962517006  3.2515334544713603  8.6719303468477396   T   T   T
  5.4452027087946595  5.9245815555749601  8.6695105850081386   T   T   T
  6.1627263706206401  4.5891732348985403  4.3116538746887603   F   F   F
  7.7072828280564902  1.9344199802759501  8.6682805785190489   T   T   T
  6.9531519470662806  5.9185156975991910  6.4867227277602595   T   T   T
  3.8560164411592406  3.2159472744661106  4.2542465468787398   F   F   F
  7.6765625953144898  4.5437604670414302  8.6479342610233694   T   T   T
  0.1636268114794700  1.9929010636801401  6.4611915463086094   T   T   T
  6.1654137533889903  1.8993938251665110  4.3126755571227893   F   F   F
  3.1288933299440500  2.0286337881834302  2.1485921076319698   F   F   F
  3.9361563574930503  0.6469487851074803 10.7320459368434697   T   T   T
  6.0228929189845992  1.9131076780719103 10.7668757036055389   T   T   T
  0.9479736934168801  5.7539872856298198  2.2229864793322798   F   F   F
  8.2564494801765314 -4.4311318471195493 10.7130315304354493   T   T   T
  7.6029622334597402  1.9888524210135303  2.1857771310301199   F   F   F
  5.3938803509452597 -1.8589501865470197  2.2148282273850199   F   F   F
  0.8869256272354601  5.7697015018837003  8.6634707959060986   T   T   T
  2.4857765510999403  0.6830417221249501  6.4146964540013993   T   T   T
  4.6312075317690500  7.2099965633654906  6.4227943349994092   T   T   T
  6.1125877001237603 -3.1538370430140303 10.7313340617269795   T   T   T
  8.4272726853240503  0.6338069961948301 10.7428259463687699   T   T   T
  5.3945053536076699  3.2162744965177108  2.1579151108657899   F   F   F
  4.7257834126458711  1.8976293342674999  6.3595799762628493   T   T   T
  0.8968121872041800  0.8176658750786000  2.1937165034335000   F   F   F
  8.4228321235846799 -4.3901963419970098  4.3156967431662601   F   F   F
  3.8602501284142501  3.2279089856905396 10.8013870567631098   T   T   T
  6.8476181273748509  0.7645291630513896  6.3258386487870091   T   T   T
  6.1406769011834701 -0.5832638911867597 10.6329708507428098   T   T   T
  5.3667390516985511 -1.9521756985666501  8.6271564378931487   T   T   T
  6.0855756579917903  4.5899875739404603 10.7650681398082906   T   T   T
  7.6146262416708108 -3.0907945859717003  8.6546937148161494   T   T   T
  1.6134839044131402  1.9979325539546697  4.2514379170770802   F   F   F
  3.1480694883245297  7.1400409612621507  8.5444057841408494   T   T   T
  1.6355101103056400  4.4600391871400005 10.7494067507817999   T   T   T
  2.5201796507356202  8.4417223863693103  6.4437077012300401   T   T   T
  7.7425961732861808 -0.6350894629710799  8.6336222864091798   T   T   T
  6.0658769865626896 -0.6223022271384696  4.2819153613005705   F   F   F
  1.7075691531223500  2.0096918055759101 10.7770008671151896   T   T   T
  0.9595842249556500  3.1978086636830199  2.1523024908612300   F   F   F
  5.4440889910585204  0.7936000579682300  2.2519617642376200   F   F   F
  6.8685229025148304  3.2149972075714803  6.4818786607709695   T   T   T
  1.6791027123013500  4.4816195442286206  4.2373647603219302   F   F   F
  3.9435925616849303  5.9177594686170805  4.2823214530728695   F   F   F
  6.1665792432630511 -3.1429049410442298  4.3616803968373299   F   F   F
  8.3451917617132008  0.6900651120962502  4.3264987074869001   F   F   F
  1.6801649590378902 -0.4623846526517401 10.8219503904917893   T   T   T
  3.1151989007517602  4.4977843761401193  2.1289823831296797   F   F   F
  3.1902740576796602  7.1966311137603798  2.0902851233782198   F   F   F
  4.5881464856508494 -0.6035121191456397  6.3781230969967906   T   T   T
  0.8309915606261700  3.2694383293617002  8.6465859840769497   T   T   T
  3.9812700776444299  0.7245642553148705  4.2940293809026295   F   F   F
  7.6989323742285105 -3.1720574853553498  2.1681879173235497   F   F   F
  0.1236586215964900  4.5462805333527401  6.5394377115907094   T   T   T
  4.0161242677612403 -1.9295502410908800  4.2625220104478796   F   F   F
  4.0769782354062398 -1.8916890374784299 10.6870283875509795   T   T   T
  0.9666119243391500  8.3451782188329400  8.6767327717746099   T   T   T
  4.0070839028723197  5.7092636268545007 10.8357452537101988   T   T   T
