Pt Pd Ni Co Fe 
 1.0000000000000000
     8.9787920000000003   -5.1385339999999999   -0.0093560000000000
     0.0222510000000000   10.3219250000000002   -0.0044850000000000
     0.0100720000000000   -0.0211110000000000   22.9158259999999991
 Pt  Pd  Ni  Co  Fe 
  16  13  19  18  14
Selective dynamics
Cartesian
  3.1316394805646599 -0.7120183251211100  8.6195043190513605   T   T   T
  3.0826236097048301  4.5849152557212598  8.7315128471882897   T   T   T
  5.3372877350185002  5.9434813926948307  2.1791862312513199   F   F   F
  0.7928411687644901  0.6960802280901399  8.7412560442447091   T   T   T
  1.7219911981660601  7.0751749090594505  4.2289121402941996   F   F   F
  1.7244096329574901 -0.5143786820993000  4.3782869323255502   F   F   F
  5.4754409999001910  0.5580426282911201  8.4932515161291295   T   T   T
  2.4258676684091398  5.8818117456454697  6.4487815855246788   T   T   T
  8.3989128789164997 -1.8868019131382399  4.3369656515561399   F   F   F
  0.9688650814886399  8.4337636250947909  2.0894744533008600   F   F   F
  1.8248505853963601  7.1016684213668597 10.8185919514618405   T   T   T
  8.3637502415065104 -1.8773242472744098 10.8080724226623097   T   T   T
  7.6758138994918506  4.6200519618077900  2.1505394637656101   F   F   F
  0.2412523093172800  9.7159452901687491  6.5434298495998995   T   T   T
  4.6887546476853599  4.5224929642843703  6.4652689452469803   T   T   T
  3.2453349552010100 -0.5314909634037700  2.1547785200247698   F   F   F
  0.1263962534377800  7.0722991137604305  6.5170447278457200   T   T   T
  6.8471436709137805 -1.7625717057580299  6.5318278322096806   T   T   T
  2.3321961243295202  3.1932427676714501  6.4305204610652993   T   T   T
  8.3843604063642285  3.2815850078319109  4.3302001303389899   F   F   F
  3.1326909370368203  1.9393096038864999  8.6481229816044998   T   T   T
  8.4080722364882305  3.3347884680829991 10.9198040693744503   T   T   T
  7.6227324230839200 -0.5350896981707797  2.2199379603718796   F   F   F
  5.4391465094386007  3.2451932857662902  8.6985231764732589   T   T   T
  5.4375780158126794  5.9111415463610211  8.6974216561236801   T   T   T
  6.1627263706206401  4.5891732348985403  4.3116538746887603   F   F   F
  7.7117116500889207  1.9349179810293105  8.6857138300523395   T   T   T
  6.9478246729966999  5.9291577143400511  6.5022353508766004   T   T   T
  3.8560164411592406  3.2159472744661106  4.2542465468787398   F   F   F
  7.6735864890462100  4.5430178119683102  8.6613153046502891   T   T   T
  0.1681415763264400  1.9949221343119901  6.4793314411622607   T   T   T
  6.1654137533889903  1.8993938251665110  4.3126755571227893   F   F   F
  3.1288933299440500  2.0286337881834302  2.1485921076319698   F   F   F
  3.9516917318613105  0.6324362188807497 10.7460399352197502   T   T   T
  6.0296642306668904  1.9299377389709496 10.7982188760630500   T   T   T
  0.9479736934168801  5.7539872856298198  2.2229864793322798   F   F   F
  8.2676529502157088 -4.4238855516601303 10.7520112023222296   T   T   T
  7.6029622334597402  1.9888524210135303  2.1857771310301199   F   F   F
  5.3938803509452597 -1.8589501865470197  2.2148282273850199   F   F   F
  0.8896406157062100  5.7835276250630896  8.6878941846524089   T   T   T
  2.4951629005254103  0.6793835700070698  6.4201877950865303   T   T   T
  4.6370128557772796  7.2138252757463901  6.4243084136412589   T   T   T
  6.1129763989451300 -3.1687722172693396 10.7594141918407900   T   T   T
  8.4286378571836611  0.6462050803615700 10.7732338690698803   T   T   T
  5.3945053536076699  3.2162744965177108  2.1579151108657899   F   F   F
  4.7371495367334102  1.8909303246353197  6.3653150482994301   T   T   T
  0.8968121872041800  0.8176658750786000  2.1937165034335000   F   F   F
  8.4228321235846799 -4.3901963419970098  4.3156967431662601   F   F   F
  3.8405109046831698  3.2057060339306802 10.8237265236852700   T   T   T
  6.8576341281753708  0.7685205752933998  6.3377560574859491   T   T   T
  6.1326168829882102 -0.5846411599819300 10.6462874537449288   T   T   T
  5.3783924555103200 -1.9609161903260302  8.6452205082869806   T   T   T
  6.1004638654614203  4.5792423449179802 10.7947023164762204   T   T   T
  7.6177702179993307 -3.1025161653175299  8.6765859856557288   T   T   T
  1.6134839044131402  1.9979325539546697  4.2514379170770802   F   F   F
  3.1459654464703903  7.1432048997137194  8.5559202725489296   T   T   T
  1.6271877726267201  4.4929734415673108 10.7747813960097396   T   T   T
  2.5237354204138600  8.4399020113103020  6.4430372819465003   T   T   T
  7.7460229997600605 -0.6374637166927107  8.6498453639359596   T   T   T
  6.0658769865626896 -0.6223022271384696  4.2819153613005705   F   F   F
  1.7012376578580199  2.0100446877119702 10.8023210148332804   T   T   T
  0.9595842249556500  3.1978086636830199  2.1523024908612300   F   F   F
  5.4440889910585204  0.7936000579682300  2.2519617642376200   F   F   F
  6.8755135688159008  3.2183783318099608  6.4998935520435399   T   T   T
  1.6791027123013500  4.4816195442286206  4.2373647603219302   F   F   F
  3.9435925616849303  5.9177594686170805  4.2823214530728695   F   F   F
  6.1665792432630511 -3.1429049410442298  4.3616803968373299   F   F   F
  8.3451917617132008  0.6900651120962502  4.3264987074869001   F   F   F
  1.7038232086493001 -0.4428668471731401 10.8605276187735402   T   T   T
  3.1151989007517602  4.4977843761401193  2.1289823831296797   F   F   F
  3.1902740576796602  7.1966311137603798  2.0902851233782198   F   F   F
  4.5950742162363598 -0.6090267342803696  6.3821410254088198   T   T   T
  0.8382628792653100  3.2828510478768802  8.6607933006253699   T   T   T
  3.9812700776444299  0.7245642553148705  4.2940293809026295   F   F   F
  7.6989323742285105 -3.1720574853553498  2.1681879173235497   F   F   F
  0.1287861847975400  4.5525790079244999  6.5528866201621003   T   T   T
  4.0161242677612403 -1.9295502410908800  4.2625220104478796   F   F   F
  4.0895892392575703 -1.8966407604503401 10.7026744884649894   T   T   T
  0.9606545631355001  8.3474773890603107  8.6902538402314402   T   T   T
  4.0144200921123296  5.6712743520462103 10.8642640734486893   T   T   T
