Pt Pd Ni Co Fe 
 1.0000000000000000
     9.0348150000000000   -5.1878500000000001   -0.0082870000000000
    -0.0577960000000000   10.2815770000000004   -0.0342180000000000
    -0.0094090000000000   -0.0583070000000000   22.9315239999999996
 Pt  Pd  Ni  Co  Fe 
  17  17  16  16  14
Selective dynamics
Cartesian
  4.6070494749140805  7.0874522497302896  6.4955026965724398   T   T   T
  2.2690866702060699  8.3838046571903604  6.3789216067101790   T   T   T
  3.8239752783414902  5.8870920654534213  4.1796454859345005   F   F   F
  8.3859637510690703 -1.9815607092418397  4.2504054727682599   F   F   F
  6.2069703865533201  2.0099855611896600 10.7187760969788588   T   T   T
  5.3417601958567298 -1.8742766868847598  2.2315170744380901   F   F   F
  1.5773516072089604  7.1927260335210796 10.8477567176117393   T   T   T
  3.8694482221727000  0.7452115525696998 10.7618225734151611   T   T   T
  0.1642020973009400  4.5084537264261701  6.4529762785944405   T   T   T
  3.8303538491239797  3.2111309604918401  4.1806483240697005   F   F   F
  4.5913254654236608  4.3647855882196307  6.5277830482106092   T   T   T
  5.4073747342214808 -1.9548445595006598  8.7785754203819497   T   T   T
  7.7144308625757603  2.0553405409815801  2.1166878407740000   F   F   F
  6.9456554082228505  5.7252675261892003  6.5378265116856902   T   T   T
  0.9549652661722100  5.8279637339213304  2.0495320194363402   F   F   F
  8.5061127848411608 -4.5936905434795205  4.2084181779746697   F   F   F
  0.8285135380878600  0.7141341109995799  8.6054225522145202   T   T   T
  3.0130707060930204  1.8846078006032601  2.0489648081850600   F   F   F
  6.9286223067982808 -1.9196993409315601  6.5372973037284199   T   T   T
  3.8731691847384497  5.7383779468248015 10.8946664367310184   T   T   T
  7.6700937781329408 -0.6443774681683297  2.1284115150151899   F   F   F
  3.1397937457020300 -0.6276623831583600  8.6312071186414894   T   T   T
  3.8704313055416901  0.5406607942746700  4.2460580712174405   F   F   F
  6.9249185843455709  3.0698460622504604  6.4349069773868406   T   T   T
  0.9304602921933901  5.8332522498960699  8.6562170393943703   T   T   T
  8.4002501328315304  0.6999976181998903  4.3223185989599395   F   F   F
  2.3833829197839096  0.7244076723482800  6.4097973750026505   T   T   T
  8.5549860290180213 -4.4606058393428905 10.9776064275323204   T   T   T
  5.4135491881258497  5.8045102062469507  2.0249934280727899   F   F   F
  6.1836377157977802  4.4653066085956405  4.2197673472265400   F   F   F
  6.2381275247095909 -3.1336936153120805 11.0448369740490193   T   T   T
  2.3556439837323602  5.7729034586921300  6.4370020962109997   T   T   T
  5.3783086565193203  3.2087141688729601  2.0195530144979901   F   F   F
  7.6783368364462099 -0.5949163084786200  8.7109119520972698   T   T   T
  1.6495142719320199 -0.6720939292419901  4.2427020483958602   F   F   F
  0.9206866733889000  8.4574018685521004  2.0792267786469401   F   F   F
  8.4953478535721008  3.1963075534456000  4.2684233849435795   F   F   F
  8.3888234135440705  0.6771932788876601 10.7962508358223594   T   T   T
  5.3847502469268598  0.6350913278920304  2.1369248363284901   F   F   F
  3.0419857766422003  7.1774459294310002  2.0790778569808896   F   F   F
  7.7322861009001196  4.5563589669944609  1.9888086998149499   F   F   F
  6.8578920992206100  0.6274622617101305  6.4563223554048497   T   T   T
  8.4347866297719705  3.2178935075182116 10.6204857542608195   T   T   T
  3.8947391445540398 -1.9288468570065298  4.3320373152628395   F   F   F
  6.1469776693832205  1.8416134760028604  4.2500179884952596   F   F   F
  7.6194704630357801  4.4436038367385899  8.6777939627012088   T   T   T
  6.1211557056396195 -0.7005982898245897  4.4206661391918693   F   F   F
  0.8906570835045601  0.6256791597498300  2.0793729537431100   F   F   F
  0.1816953143237900  1.9309825076962199  6.4073217611843400   T   T   T
  8.4907963601733201 -1.8641861154023909 10.7211044554556807   T   T   T
  0.0669749639413600  7.1275531616440810  6.4753694038261189   T   T   T
  3.1239877744683899  4.5492304115447197  1.9659857730685597   F   F   F
  0.8885769102528900  3.2106242961704199  2.0994919287167799   F   F   F
  1.6654260049728902 -0.5971551744361802 10.6994668471850201   T   T   T
  3.2591751520361800  2.0444446941881900  8.4976265238855504   T   T   T
  1.6028032878885099  7.1660965421379306  4.2033323918114096   F   F   F
  5.3311829986066508  5.6728038764454496  8.7010350249890003   T   T   T
  1.6074005403529301  1.9284635342836900  4.2163495196929004   F   F   F
  6.1547496163927908 -0.5498740072008800 10.7834135250409293   T   T   T
  2.3412795367361006  3.1815049794755001  6.3838933666651707   T   T   T
  0.9450065706856301  3.2276191898485398  8.5404762398210501   T   T   T
  7.6751242019188810  1.9762741694509405  8.5848557060977893   T   T   T
  4.6868145178138692  1.8059557867466607  6.4947724095988191   T   T   T
  5.4001741871011504  0.7319549114641005  8.5157734976532407   T   T   T
  1.6124767784393501  4.4699709529254505  4.1552772139421403   F   F   F
  0.7401055424615101  8.3893263066488313  8.5422547710671992   T   T   T
  3.8692826029995602 -1.8283412853719199 10.8923610292518109   T   T   T
  4.7090450446113401 -0.5966603101211803  6.4563308177873102   T   T   T
  3.0884936185949003 -0.6639246783699999  2.1129912140466800   F   F   F
  7.7773238895991099 -3.2655852651236201  2.0687029635728997   F   F   F
  3.1524183797046503  7.0549813330874507  8.7445510216944005   T   T   T
  3.8900985911560202  3.2542665496130105 10.6938982897055102   T   T   T
  1.5240132696647901  4.5554871317955703 10.7704742050952493   T   T   T
  1.7025687829927001  2.1796472042233002 10.5837850101056699   T   T   T
  7.6398510120033505 -3.2967527018711507  8.7614469682677800   T   T   T
  3.1109313419758404  4.3327310068938196  8.6524484826026598   T   T   T
  6.1386309054624002 -3.1809642628565000  4.4083608787354303   F   F   F
  6.2125577728326098  4.5766729902196808 10.6377676561153791   T   T   T
  0.1030346348519900  9.6050283740687199  6.4262145875520300   T   T   T
  5.4491575952794893  3.1455530713151201  8.5703499405063699   T   T   T
