Pt Pd Ni Co Fe 
 1.0000000000000000
     8.9376460000000009   -5.1802149999999996   -0.0567110000000000
     0.0080190000000000   10.3804099999999995    0.0354720000000000
    -0.0291720000000000    0.0284160000000000   22.9142790000000005
 Pt  Pd  Ni  Co  Fe 
  15  14  16  18  17
Selective dynamics
Cartesian
  8.3337268746521005 -4.4603555423417793  4.2339768847038197   F   F   F
  8.3140032125958623  3.3274841134889592 10.7788633431421506   T   T   T
  8.2658693951080409 -4.4879095733796497 10.7147471562995893   T   T   T
  7.5150046232724801 -3.1312375214939792  2.0980498511863401   F   F   F
  6.0441503055002501 -0.5332896855357994 10.7085737792827302   T   T   T
  3.0754595328558705 -0.5820503327077199  2.1562755907001199   F   F   F
  8.3301285238605303 -1.8918927533856100 10.7733529484947503   T   T   T
  0.9325206189868701  0.6774466656161100  8.4591699299382199   T   T   T
  3.9273453699899803 -1.8545485155058496  4.3268648994573997   F   F   F
  0.9330438480548601  3.3414678045306494  8.5822693069795406   T   T   T
  3.0488335459397997  7.1645458250458400  8.5455739546796412   T   T   T
  5.3140086493059506  3.3679265404480301  8.6299622216909295   T   T   T
  3.0972154659914999  4.5996237613363800  2.1633015101550299   F   F   F
  4.5244730038628793  1.9536596681809604  6.5138328093397604   T   T   T
  6.0464234651778703  1.9159320838844400  4.2336468130348299   F   F   F
  3.8200092680141098  3.3222409013672398  4.4021767363972204   F   F   F
  7.5851518638655104  1.9983481921561201  8.5445955839102012   T   T   T
  0.1554104355373100  4.5568553254412203  6.4035541611425009   T   T   T
  3.1286732139106999  7.1620609537549704  2.1560415944734999   F   F   F
  3.7996329212375803 -1.9129414825832998 10.7700930652144891   T   T   T
  8.3733009482584109  0.7278141706433300 10.8342639208479810   T   T   T
  6.8633264890925902  5.9123298208859394  6.4664929991124200   T   T   T
  0.2288776803340400  7.2429341491828998  6.4900802975189897   T   T   T
  3.1206311981968704  2.0113212636959203  2.1859074593928800   F   F   F
  8.3403830464390118  3.2959840666310591  4.2355448397718405   F   F   F
  7.5653767577320608  1.9814896606940708  2.0766831818404903   F   F   F
  1.6752585700066103  7.0852331542172298  4.3141000504033098   F   F   F
  4.6177365077963808  7.2067103932931200  6.4710378591649604   T   T   T
  6.7917265531954403  0.6112791124241603  6.4085403527245699   T   T   T
  1.6791854351847404  2.0178283150019101 10.7168454778417903   T   T   T
  0.8429652863222500  3.2863730311018498  2.2373418441625299   F   F   F
  0.8550881571027001  8.5107784425447406  2.1954772580292903   F   F   F
  6.0379400660134506 -3.2337240452599998 10.6128002611201211   T   T   T
  1.6283152576245501  7.1965384655221802 10.6740884351213303   T   T   T
  6.0644671755094004  4.6615249313744505  4.2731032725083500   F   F   F
  1.6104603492565601  2.0155014767399497  4.2743614646413901   F   F   F
  1.6451955798063000 -0.5820866382434199 10.6757268921237305   T   T   T
  8.3276161156057302  0.5908473487164200  4.2528420154919804   F   F   F
  3.8039051384984206  5.8341346015265998 10.6689781246219599   T   T   T
  3.1783940020966002 -0.5596813656555598  8.4806589329259712   T   T   T
  5.3808557733503495  5.8449328336539006  2.2188757205447498   F   F   F
  3.1311217942760403  4.6650298662201699  8.5873276925142292   T   T   T
  1.6936943839634002  4.5964137922713606 10.7463820392158311   T   T   T
  4.5631304292732198 -0.6114078237657699  6.4799142910193304   T   T   T
  0.8396330268446102  0.6684220169629300  2.1832717918296902   F   F   F
  5.2576544226407398  0.6818567082697402  8.6122500426445203   T   T   T
  3.1413158071861300  1.9819256401166903  8.6299959376363606   T   T   T
  2.3374911534161806  8.6389311533507911  6.4876049137943204   T   T   T
  0.2051498791766600  9.8093709674975997  6.4541471982172096   T   T   T
  6.0012731847980110  2.0490366735757397 10.6952375542532092   T   T   T
  7.4870687060668510 -0.6846407951782596  8.5262455858518003   T   T   T
  2.4613026714118100  5.7928231884994092  6.4258145209926196   T   T   T
  2.3270896477890508  0.6484803271724198  6.3762450753255209   T   T   T
  3.9947197799280403  5.8539135618287501  4.3385735311132603   F   F   F
  6.1661919151497706 -0.6532118325858697  4.1811007414913801   F   F   F
  1.6597606043087001 -0.5634314424072200  4.2860261932468697   F   F   F
  6.0702728090566005  4.6111449688860295 10.6950444076935991   T   T   T
  8.3103515294115518 -1.8278255804114898  4.2217286499977300   F   F   F
  5.4407113662266706  0.5646065408750003  2.1113094655619102   F   F   F
  0.8094628700080901  5.7946522599292507  2.2494773746334502   F   F   F
  6.0758083271593106 -3.2001473995073595  4.2338813288452402   F   F   F
  2.3713922044902804  3.3333600225046296  6.4860164590051399   T   T   T
  7.5786468417062203  4.6330090444134209  8.5266741990255710   T   T   T
  6.8357871615580210 -1.9034197254233598  6.3582783905055296   T   T   T
  3.8563337233254105  0.6571027791387798  4.2950415303689198   F   F   F
  1.5037864484755401  4.5139527300030107  4.2827992189484902   F   F   F
  0.9251071979948701  5.8451941493934196  8.6724483395005798   T   T   T
  3.7740719003349508  0.7588275415282399 10.5721303982841501   T   T   T
  0.2518570634355900  1.9947612693332799  6.3859672070423708   T   T   T
  5.3758568857964004 -1.8326344286098097  2.1546246160842801   F   F   F
  6.8596673469151801  3.3749826156471601  6.4247789990311208   T   T   T
  5.3982102803181800  5.9114957470833200  8.7227253951106398   T   T   T
  4.5122539346977799  4.6271371369975398  6.4419651498041999   T   T   T
  5.4105604284308404  3.3696859376349799  2.1574688794786501   F   F   F
  5.4220100628307613 -1.8140939295811298  8.5211677369067189   T   T   T
  7.5456081263647796  4.6318978636938999  2.1219130690947599   F   F   F
  0.8895962561018701  8.5631753830916200  8.6102366172620410   T   T   T
  7.5613514669664807 -3.1456291114913495  8.5456513728747208   T   T   T
  3.7604006583199205  3.3037580203707302 10.6870030528685707   T   T   T
  7.6477318939468413 -0.5608342282048002  2.1142275382097000   F   F   F
