Pt Pd Ni Co Fe 
 1.0000000000000000
     8.9845959999999998   -5.1242000000000001    0.0030630000000000
     0.0408230000000000   10.3251139999999992    0.0249720000000000
     0.0492080000000000    0.0155290000000000   22.9187680000000000
 Pt  Pd  Ni  Co  Fe 
  18  15  16  18  13
Selective dynamics
Cartesian
  5.4273508518571196 -1.9012732539874400  2.1782117767005200   F   F   F
  3.8833250166461801  3.4027581934278195  4.2762556817516000   F   F   F
  1.7218063461451598  7.0290286164364799 10.8866115469164697   T   T   T
  1.6980927295088399  2.0298228133949197 10.8504666864072501   T   T   T
  8.3677881524899398 -4.3840379765693411 10.8809050345767204   T   T   T
  1.7803831109284698  7.1856695356520497  4.2553052928978703   F   F   F
  1.7093391825888300 -0.6175934275396802 10.8705220714032897   T   T   T
  7.7222810670125206  4.6887014809836183  8.5500686880458900   T   T   T
  3.1806402827428499  4.6020698616147193  8.6477687924223403   T   T   T
  8.4384041033020907  0.7852181131407000  4.2893374399929396   F   F   F
  3.9569426202309299  3.3002801071893688 10.8726091678613912   T   T   T
  5.4363414636966603  3.2086725550371988  8.4933668930856197   T   T   T
  6.2341156218776499  4.6111472238693487  4.1963999681219901   F   F   F
  5.4502061526787910  6.0282619784315283  8.5802895329316797   T   T   T
  6.1563669265963599  4.6163731157873089 10.9351590977223108   T   T   T
  2.4808486491571298  5.8602269230263691  6.4462723988048403   T   T   T
  2.5905152681067500  8.5389088959984090  6.4409171626394199   T   T   T
  2.4535269745499000  3.2039299688704901  6.4629756338993198   T   T   T
  8.3954226076896195 -1.8800229100641808  4.1710921573020094   F   F   F
  3.9114905133375397  0.6668697328076396  4.1844074991859905   F   F   F
  0.1654550938799700  9.7081430282336605  6.3321799351725705   T   T   T
  3.1216574854411396  1.9732329227822096  2.0391417613792999   F   F   F
  1.0025503195259000  8.4359966324075693  8.6100117123919695   T   T   T
  8.4130191587979493  3.2105331796412786 10.9836727454090788   T   T   T
  1.6262313930414400  1.9736234781702400  4.2031156268142604   F   F   F
  4.0248711137446200  0.6781472539736495 10.7996713599167009   T   T   T
  7.6855190093784902  2.0609142460666692  2.0855956923989498   F   F   F
  0.0575299386205800  1.9631729800216799  6.4407330930853499   T   T   T
  4.0364223951570697 -1.9478975970002301 10.8063328999908297   T   T   T
  8.3439784979391884 -1.7172961667340807 10.8864321937540094   T   T   T
  7.7114766059409998  1.8951285644762987  8.5964518252365405   T   T   T
  6.1840903484423491 -0.5711552187237201  4.2824337628973694   F   F   F
  0.8413688675536601  3.2980892579443899  8.6025327795972597   T   T   T
  1.6774045465190399  4.6150921202955395  4.2914656412229499   F   F   F
  0.9815582176356199  8.4398748866213893  2.0907225257970299   F   F   F
  0.8477259483008200  0.6156873389450298  2.1413676794926699   F   F   F
  0.9366252198471899  5.8410479938814301  2.1446898465629500   F   F   F
  5.4229691406478899  3.3389451642838002  2.1154470532458602   F   F   F
  6.1781501422936502 -3.1277177971734904 10.7504660403788410   T   T   T
  3.9886492620382303  5.9279847481491394  4.2204754436328296   F   F   F
  5.4185217053391099  5.8235996678036495  2.1424319921864101   F   F   F
  8.4896504207250505  3.3908473590656696  4.1867069269919899   F   F   F
  7.6136450648483196 -3.0417310823071797  8.5719269465748997   T   T   T
  3.0813433530413299 -0.6890689979561900  2.1263499722763699   F   F   F
  7.7104444732703801  4.6370266712976891  2.1044915900401300   F   F   F
  6.1774784860815499  2.0278107190102994  4.2589096077521402   F   F   F
  3.1886999489694801  1.8725006364766099  8.5186074317004010   T   T   T
  6.9139016245373988  3.2301847007505891  6.3764474569079104   T   T   T
  0.1502528523441800  7.0744587614446282  6.4875716268018708   T   T   T
  3.1225835606673198  4.6022222960767900  2.1530378991604602   F   F   F
  1.6701801995586600  4.5925994768424898 10.7699398811390097   T   T   T
  4.7345917168962499  1.8860746935806700  6.4513456466793802   T   T   T
  6.1555115362157098 -3.1590342183761502  4.2829778772476503   F   F   F
  3.2304301809354996 -0.5814561356416299  8.5824672523495096   T   T   T
  0.0815541631495200  4.6203873709337993  6.4766489973273895   T   T   T
  6.8320827817717786  5.9518556848673505  6.4110353648164997   T   T   T
  5.4081239534513701 -1.7614592292892801  8.5580737520458499   T   T   T
  3.9402839297219701  5.8369481442903099 10.7590150043927899   T   T   T
  5.4808994195304503  0.7377685083072996  2.1229797396202001   F   F   F
  5.4007885999027208  0.6046262132080598  8.5963295406634401   T   T   T
  0.9198534161225900  3.3896038395039798  2.0806964656105800   F   F   F
  6.2399009176620508  1.8752235200152592 10.7607832321210601   T   T   T
  4.7789012940599802  7.1981474737573787  6.4655022711130608   T   T   T
  3.2245559774387198  7.2070242272491294  8.6454522759643790   T   T   T
  4.7416875808052392 -0.5707013849672596  6.5262669104388502   T   T   T
  7.7179484923051502 -0.5425344717376706  2.0606345765046199   F   F   F
  1.0239743215509001  0.7077620662058499  8.6451740572484610   T   T   T
  4.8085300151280599  4.5869738476163695  6.3905626317870299   T   T   T
  8.3751933050240286 -4.4561778505116605  4.1938313546536099   F   F   F
  3.1724986529358201  7.0842199060611586  2.1532353354835401   F   F   F
  8.4605158818948496  0.7268299037002599 10.8164970648799894   T   T   T
  0.9597528708231098  5.8584860249552104  8.6348742571429895   T   T   T
  2.5025185508949499  0.6957160391021099  6.5415976802215701   T   T   T
  6.1880718565986896 -0.5340260825466597 10.6949138387053502   T   T   T
  6.9357239251628000  0.7265649610383595  6.4254388723023501   T   T   T
  6.8388444585419998 -1.8811798601454903  6.5237579249267403   T   T   T
  1.6454964360616402 -0.6225326592805102  4.1446027933259497   F   F   F
  7.6379537641714004 -0.6067882721028200  8.5958598630263090   T   T   T
  3.9374316907507101 -1.8991419283436100  4.2686996531506702   F   F   F
  7.6248798194064591 -3.2469027659977794  2.1084940468022699   F   F   F
