Pt Pd Ni Co Fe 
 1.0000000000000000
     8.9788379999999997   -5.2082129999999998   -0.0213960000000000
    -0.0412480000000000   10.3512199999999996    0.0130200000000000
     0.0054110000000000    0.0005430000000000   22.9185650000000010
 Pt  Pd  Ni  Co  Fe 
  14  17  16  18  15
Selective dynamics
Cartesian
  7.7126416844455798  4.5396456480534590  8.5593102737419802   T   T   T
  3.8304294738893998  3.3700460853550593 10.8574756155895997   T   T   T
  3.0307421455115597  4.5761788174198701  8.5213425901374595   T   T   T
  3.1541053072725598  7.1840761002698699  8.6226861350980197   T   T   T
  0.0239431538984300  7.1173375448336405  6.4720314537515895   T   T   T
  6.8774522197752894 -1.8754581300760298  6.3813053742156702   T   T   T
  7.6009129494894196  4.6132075798908501  2.1552218073080400   F   F   F
  2.3253904318730401  8.4452421061313494  6.5201539537755799   T   T   T
  3.2118574091799204  7.1291979565156893  2.1541807410250602   F   F   F
  4.6969171510327206  1.9812939918028996  6.3688503394437994   T   T   T
  7.5582525043471298  1.9924428401966296  2.1785904164812702   F   F   F
  0.9157907676676700  5.8182674441230500  2.2292015144041701   F   F   F
  3.8992219582130900  3.3433551464980402  4.2189838639331700   F   F   F
  8.5306164005207901  0.6712823393481903 10.7974046461697295   T   T   T
  6.1436998648986005 -0.6609828426909001 10.7858455651629601   T   T   T
  0.1370297941082500  1.9975274574843700  6.4627749079399504   T   T   T
  7.6115698763482094 -3.1747473436336895  8.6477245761062704   T   T   T
  3.1466441412764499  1.9473228138803205  2.1664615543788899   F   F   F
  7.5890876608350899  1.8726941313036005  8.6200198302707705   T   T   T
  6.1529803358465394  2.0248792974213501 10.9301418474584811   T   T   T
  4.6408022584002895 -0.6450969166692101  6.4299224238945110   T   T   T
  1.6060573262232098  1.9518764454873201  4.2838041007964902   F   F   F
  6.7653353203131790  5.7895233912587498  6.3462358239284802   T   T   T
  5.3707236184748695  3.2985692835019802  8.5560767011953889   T   T   T
  7.5778232812093202 -0.7120675053215602  2.2097767403574804   F   F   F
  2.3513190551674694  0.6750419678049702  6.4653773717320897   T   T   T
  6.1311954683656902 -3.2891728470154602 10.8640453516574897   T   T   T
  3.1814502036198502 -0.6293723882927499  2.1491083189296298   F   F   F
  3.7520214396130998  0.6068336992626600 10.9317417460071802   T   T   T
  1.6285037957867998  7.1735624794022401  4.4164558931425200   F   F   F
  3.1051053895635596  1.9049536135722798  8.6508978444005198   T   T   T
  5.3806779675422405  0.6626019246464702  2.2360097222765400   F   F   F
  1.6348007520499899  4.5656612472653002 10.6904162159416707   T   T   T
  5.4346789406024598 -1.9706230782870600  2.1245341666486999   F   F   F
  3.9112373223580601  5.8733577496507587  4.2389657535399001   F   F   F
  2.3565168056474901  3.3568122166763601  6.4003764714395706   T   T   T
  5.3401300859426293  5.9013055304061206  8.5857009325659899   T   T   T
  0.9382378388795100  0.6360024029944801  8.6703500133050717   T   T   T
  3.9126539160597096  0.6116308844049601  4.2794181412363903   F   F   F
  1.5240877197017499  2.0139158996682300 10.7239514743342905   T   T   T
  8.3397206931362486 -4.5234432934256388  4.2202297694188902   F   F   F
  0.8403565851943899  3.2118160218449998  2.2117388787444701   F   F   F
  7.6355592862032289 -0.6499822733846599  8.5540889738857100   T   T   T
  2.3931790078782793  5.7779834178613001  6.3996925991681204   T   T   T
  1.6535418459916298 -0.6262523938456900  4.2691329113219307   F   F   F
  3.1377047227881198  4.5616972532853000  2.1519826502706798   F   F   F
  6.8613783605392795  3.2627458060146495  6.3228068146006606   T   T   T
  0.9212374703972901  8.4526283202813381  8.7180323573372505   T   T   T
  6.1398893831714600  4.5445905141834801  4.2460712249242203   F   F   F
  8.5117099609658098 -1.8957038050695494 10.6477070508797897   T   T   T
  1.5695747333478898  4.5429017749520391  4.3668567168710100   F   F   F
  3.8593550962180396  5.8644904509401092 10.6844034991805010   T   T   T
  5.3928372035126406  0.5484556081480597  8.5811494146315201   T   T   T
  8.3098294592862096 -1.9267845462439099  4.3023686438286299   F   F   F
  8.2736709251013796  3.2331483962339900  4.3164912169118397   F   F   F
  1.5721018895983399 -0.6337221769742599 10.6657821370007806   T   T   T
  5.3444390464836600  3.3720084525468805  2.1064798581237403   F   F   F
  0.1961755452676200  4.5595462137265903  6.4825161539265199   T   T   T
  4.5553592740767090  7.0938592570313803  6.3608605014132298   T   T   T
  3.8410442359451396 -1.9669321916387095 10.7198107332571198   T   T   T
  6.1215936662614006  4.5718882539855503 10.6681133672496209   T   T   T
  5.3497964444922799  5.8042587160604802  2.1768357338723199   F   F   F
  7.5947373436527492 -3.2104239970961892  2.2386521130934902   F   F   F
  0.0783400964012800  9.6995771691705404  6.3128108959011611   T   T   T
  5.3631544115316494 -1.8352517595824598  8.6214553896301300   T   T   T
  3.1408014915450102 -0.6332915245455700  8.7204391142723914   T   T   T
  4.5488920194103493  4.6168148702366798  6.3716037105049104   T   T   T
  0.8477824258456299  3.2585414432762403  8.6191828250034703   T   T   T
  3.9168476420779297 -1.8956478022700698  4.2550945243283502   F   F   F
  0.8955600578920400  0.6302141179633400  2.1746584184948401   F   F   F
  8.4005540600828894  0.5972304914798602  4.3202537573103301   F   F   F
  0.8325325019888800  5.8204346222542300  8.5612803549990595   T   T   T
  6.1333675015952505  2.0270191112707194  4.2554068076356906   F   F   F
  6.8649593279009000  0.6556232673868501  6.4407143375896405   T   T   T
  6.1766593521010593 -3.2632444910199094  4.1695804740393196   F   F   F
  8.4050963132263306  3.2996793336303596 10.7140912988935302   T   T   T
  8.4594221801171496 -4.5237192999545899 10.6906300221605708   T   T   T
  0.8864008493122700  8.4740832171745311  2.2039772637182500   F   F   F
  1.7004668360643098  7.1956027655669388 10.7502674110683110   T   T   T
  6.0545899712657496 -0.6603838256964599  4.2317364992277104   F   F   F
