Pt Pd Ni Co Fe 
 1.0000000000000000
     8.9564489999999992   -5.1570619999999998   -0.0271120000000000
     0.0040050000000000   10.3273039999999998    0.0160500000000000
    -0.0007110000000000    0.0043940000000000   22.9221719999999998
 Pt  Pd  Ni  Co  Fe 
  14  14  18  17  17
Selective dynamics
Cartesian
  3.8595037985503198 -1.8660762284687200 10.6919253851289593   T   T   T
  0.2165004319438800  7.2710059637542797  6.4043543047196003   T   T   T
  6.9227730643658392  0.6491051432283006  6.4213965009249003   T   T   T
  0.8826699394108799  0.7213748731173201  8.5944483575355211   T   T   T
  6.1809113650005898  2.0648261220098796 10.7429826276678995   T   T   T
  5.3693294947036199 -1.9282660622261796  2.1660517766565799   F   F   F
  3.1605301059846300  4.5827067510752402  8.5995911420456608   T   T   T
  6.1206725341048491 -0.6075780256869795 10.7996772908964811   T   T   T
  4.6744532978054396  7.1106164150543814  6.4294822869654196   T   T   T
  3.0932895416499897 -0.5624341614634399  2.2287870936206602   F   F   F
  7.6747249831698907 -3.2627480812913197  8.5262847423496595   T   T   T
  2.4555641927338803  8.4280215309308204  6.4189569907397006   T   T   T
  2.3101280451216000  0.6218739703034001  6.3607088805553991   T   T   T
  3.8809372408981195  3.3465316861107799  4.2494234849108601   F   F   F
  7.6712127001193702 -3.2311567095729394  2.2168095083451198   F   F   F
  6.1278470419539586  4.5199136498531605 10.7274434526110785   T   T   T
  5.4006020397697503  3.2841272871212004  2.1274969764408600   F   F   F
  7.6488536375980187  1.9747082015441806  2.1334775190525801   F   F   F
  8.4511381616173793 -1.8565402960131596  4.3013317295692000   F   F   F
  7.6491924699005089  2.0690472761130199  8.6282926077468804   T   T   T
  5.3653618362173399  5.8281211204910193  8.5617784095795795   T   T   T
  6.0927736364864096 -3.2870185415741799  4.3743477350891595   F   F   F
  2.4717433689929700  5.8944181746212205  6.3680937309619594   T   T   T
  1.6055757400792499 -0.6318072265064399 10.7002556075309005   T   T   T
  4.6800706337965803  4.7000310097535598  6.3892903798827598   T   T   T
  3.8776341463365598  5.8168394208267795 10.6499676477261787   T   T   T
  6.0917418536803192 -0.5683981391728999  4.2754380865164201   F   F   F
  0.9559215529310700  5.8569386235745995  2.1763371181949402   F   F   F
  6.1556298992491492  1.9978116932937409  4.2542864562780798   F   F   F
  0.7941159525488399  8.5214671655415408  8.6387082237119799   T   T   T
  3.1303599903834294  4.6015094344370002  2.1420667333536998   F   F   F
  1.5873575352163196 -0.6628704536719999  4.3151681183353601   F   F   F
  0.9884434479041699  3.2618927771017603  2.2320193319967401   F   F   F
  0.1187973483815700  9.8161361139941601  6.4193038897701804   T   T   T
  5.3817240417963292  0.6925565209507798  8.6542266954165203   T   T   T
  5.3260739269937103  5.8180302331574003  2.2097667353720603   F   F   F
  7.6608141398889291 -0.7266704949409998  8.5889927296503803   T   T   T
  0.9208959104599199  0.6747199091916599  2.2585246231964997   F   F   F
  5.3662392459395090  0.6882510267170003  2.1560981193743798   F   F   F
  0.0417735458470800  1.9863347156353999  6.4437658930420403   T   T   T
  3.7893428024765399 -1.9102393397676998  4.3424106188118197   F   F   F
  3.0340530687235496 -0.6409761482245400  8.5842588732032397   T   T   T
  0.9451018559241899  5.8318856865798203  8.5813188402409999   T   T   T
  5.3659315147591791  3.3391102088625804  8.6416697425095794   T   T   T
  5.3468673558096587 -1.9977345960838797  8.5052734729250403   T   T   T
  4.6332384446686499 -0.6538630719796601  6.3967099623498802   T   T   T
  8.3955469648833887 -1.8762465661044798 10.7368903902522206   T   T   T
  1.6521027000339596  7.1819873651965001  4.2742535782082198   F   F   F
  3.7912744547100896  5.8979717600997406  4.1990102978886403   F   F   F
  3.0108019508793000  2.0550555604163598  8.6202040739301999   T   T   T
  3.8438924265475194  0.7504171069715401  4.2273653455880993   F   F   F
  3.1649594380963193  7.0968262208146990  8.5845683487668598   T   T   T
  1.6581680251920901  4.6292687508561601  4.2740832305989800   F   F   F
  8.4502500804850484 -4.5578746338462199  4.3789318155940000   F   F   F
  3.0699055733551197  1.9786570578329603  2.1931312883990399   F   F   F
  1.6612038669909601  1.9427826497087797  4.2073830777046997   F   F   F
  8.4054813342683392 -4.4894574841850003 10.6483314138500393   T   T   T
  0.9147212472546000  8.4393838875694787  2.2862811138371599   F   F   F
  6.9112491222452395 -1.9818293582900601  6.4360739826927800   T   T   T
  1.6816873550984999  4.4798474858121597 10.6908769673858792   T   T   T
  1.6970312747669400  7.1460508238447202 10.7414127491120812   T   T   T
  8.3923288592565601  3.3489450821713596  4.2310546945894005   F   F   F
  2.2844459961432895  3.2561920645242401  6.4468985388842208   T   T   T
  8.3550767297411710  3.2741262174445795 10.7382117838280795   T   T   T
  3.1409427857448593  7.1305459869373404  2.2729584031380199   F   F   F
  1.6095108454075799  1.9866049934765801 10.7469312747968999   T   T   T
  7.6098940003482296  4.5713221986618402  8.6154300722020611   T   T   T
  6.2264964365041493  4.5345721194653787  4.2304181658555997   F   F   F
  6.8751546877108796  5.8930168416856201  6.5009695797215405   T   T   T
  0.9617286542542201  3.2124698895717199  8.6740232152009593   T   T   T
  6.8816792186367302  3.4046523300165799  6.3932381906341602   T   T   T
  7.5966801129809998 -0.6305575224173000  2.0734970939818598   F   F   F
  6.1124379056495997 -3.1700483848160004 10.6874833122582800   T   T   T
  3.7780049026542599  3.3562704173089193 10.6502663032923994   T   T   T
  8.4164894230572003  0.7786519783995205  4.2946841770678805   F   F   F
  0.1537351482961800  4.5427219941138404  6.4292688612118392   T   T   T
  7.6667828831315088  4.5701741828733411  2.1686339270022801   F   F   F
  8.2892027796044392  0.7292224633930605 10.7512870193511407   T   T   T
  4.6033580677984203  1.9638064271935600  6.4205896398893998   T   T   T
  3.7778333211847799  0.7467582327089999 10.7206924915410813   T   T   T
