Pt Pd Ni Co Fe 
 1.0000000000000000
     8.9787920000000003   -5.1385339999999999   -0.0093560000000000
     0.0222510000000000   10.3219250000000002   -0.0044850000000000
     0.0100720000000000   -0.0211110000000000   22.9158259999999991
 Pt  Pd  Ni  Co  Fe 
  16  13  19  18  14
Selective dynamics
Cartesian
  3.1370096975037400 -0.7124074834962399  8.6243133260155389   T   T   T
  3.0847517916799303  4.5839880782513402  8.7321920208427102   T   T   T
  5.3372877350185002  5.9434813926948307  2.1791862312513199   F   F   F
  0.7970362896175200  0.6964061638011200  8.7431169899800807   T   T   T
  1.7219911981660601  7.0751749090594505  4.2289121402941996   F   F   F
  1.7244096329574901 -0.5143786820993000  4.3782869323255502   F   F   F
  5.4761045739565999  0.5594813301832705  8.5017724367153793   T   T   T
  2.4288092321285704  5.8785925254703502  6.4489966546522490   T   T   T
  8.3989128789164997 -1.8868019131382399  4.3369656515561399   F   F   F
  0.9688650814886399  8.4337636250947909  2.0894744533008600   F   F   F
  1.8312203449089401  7.1025836269689995 10.8242678458985004   T   T   T
  8.3655409947515711 -1.8755669988618004 10.8089944676089491   T   T   T
  7.6758138994918506  4.6200519618077900  2.1505394637656101   F   F   F
  0.2384099268241100  9.7174141359247699  6.5422437771268296   T   T   T
  4.6888772992015895  4.5217814117776802  6.4694214427111696   T   T   T
  3.2453349552010100 -0.5314909634037700  2.1547785200247698   F   F   F
  0.1274973639067800  7.0739365180137206  6.5192995815769796   T   T   T
  6.8483094441061008 -1.7648278777442901  6.5342165079088392   T   T   T
  2.3328205687284602  3.1948427691898904  6.4327023855963601   T   T   T
  8.3843604063642285  3.2815850078319109  4.3302001303389899   F   F   F
  3.1283580452363000  1.9386056526008604  8.6520758935497408   T   T   T
  8.4136687211220593  3.3381572705407407 10.9211100817356588   T   T   T
  7.6227324230839200 -0.5350896981707797  2.2199379603718796   F   F   F
  5.4405664677352910  3.2456409322493003  8.7016487052153497   T   T   T
  5.4377170896576397  5.9072319678488210  8.6979841442544803   T   T   T
  6.1627263706206401  4.5891732348985403  4.3116538746887603   F   F   F
  7.7080491097441399  1.9340200098071609  8.6895429036123399   T   T   T
  6.9500424280679498  5.9255881582155512  6.5012337571113497   T   T   T
  3.8560164411592406  3.2159472744661106  4.2542465468787398   F   F   F
  7.6740602701179998  4.5427895921458008  8.6689787625751986   T   T   T
  0.1673546595339900  1.9959223209781001  6.4819063880830496   T   T   T
  6.1654137533889903  1.8993938251665110  4.3126755571227893   F   F   F
  3.1288933299440500  2.0286337881834302  2.1485921076319698   F   F   F
  3.9556476396625397  0.6351936745548901 10.7505015445615602   T   T   T
  6.0312985616437800  1.9300480932795501 10.8063717779945989   T   T   T
  0.9479736934168801  5.7539872856298198  2.2229864793322798   F   F   F
  8.2750343760024094 -4.4231408114655997 10.7594148655887487   T   T   T
  7.6029622334597402  1.9888524210135303  2.1857771310301199   F   F   F
  5.3938803509452597 -1.8589501865470197  2.2148282273850199   F   F   F
  0.8914715160596701  5.7846992320134198  8.6944413502863291   T   T   T
  2.4990058716200401  0.6771638210886601  6.4205962844258391   T   T   T
  4.6374714551756195  7.2143540420811805  6.4264683277776200   T   T   T
  6.1175720634877502 -3.1703006896781898 10.7628978626031895   T   T   T
  8.4232462416914107  0.6471367515076704 10.7767651009089303   T   T   T
  5.3945053536076699  3.2162744965177108  2.1579151108657899   F   F   F
  4.7369922262489697  1.8898974853423303  6.3673320608679695   T   T   T
  0.8968121872041800  0.8176658750786000  2.1937165034335000   F   F   F
  8.4228321235846799 -4.3901963419970098  4.3156967431662601   F   F   F
  3.8376314093457604  3.2053412657301705 10.8268455710101801   T   T   T
  6.8573791538238611  0.7708634712458602  6.3390948049211406   T   T   T
  6.1307785497354210 -0.5893486900008399 10.6558495902411394   T   T   T
  5.3809480306290993 -1.9605573446094700  8.6504446181037196   T   T   T
  6.1066869147344001  4.5777834943060407 10.7967096839989587   T   T   T
  7.6178522903988002 -3.1019987853029498  8.6834143446296999   T   T   T
  1.6134839044131402  1.9979325539546697  4.2514379170770802   F   F   F
  3.1455727847825203  7.1403509652957613  8.5591006656244399   T   T   T
  1.6296581761217002  4.4921524593978903 10.7793695232373601   T   T   T
  2.5256100309139402  8.4421614574142207  6.4449271957901795   T   T   T
  7.7464631671416795 -0.6369916794109497  8.6537013268932998   T   T   T
  6.0658769865626896 -0.6223022271384696  4.2819153613005705   F   F   F
  1.7016528790349001  2.0085982804266198 10.8060781543445792   T   T   T
  0.9595842249556500  3.1978086636830199  2.1523024908612300   F   F   F
  5.4440889910585204  0.7936000579682300  2.2519617642376200   F   F   F
  6.8764406914642207  3.2166940814776903  6.5015950427295595   T   T   T
  1.6791027123013500  4.4816195442286206  4.2373647603219302   F   F   F
  3.9435925616849303  5.9177594686170805  4.2823214530728695   F   F   F
  6.1665792432630511 -3.1429049410442298  4.3616803968373299   F   F   F
  8.3451917617132008  0.6900651120962502  4.3264987074869001   F   F   F
  1.7088322748832701 -0.4413360173859299 10.8666908170748293   T   T   T
  3.1151989007517602  4.4977843761401193  2.1289823831296797   F   F   F
  3.1902740576796602  7.1966311137603798  2.0902851233782198   F   F   F
  4.5962149071432199 -0.6083665002185998  6.3871878563887003   T   T   T
  0.8344556900519799  3.2809153477556201  8.6629661941731797   T   T   T
  3.9812700776444299  0.7245642553148705  4.2940293809026295   F   F   F
  7.6989323742285105 -3.1720574853553498  2.1681879173235497   F   F   F
  0.1305666198551100  4.5521246890060203  6.5540653738779291   T   T   T
  4.0161242677612403 -1.9295502410908800  4.2625220104478796   F   F   F
  4.0875496304874508 -1.8984188034803302 10.7087411847703287   T   T   T
  0.9609248179460200  8.3502391652957009  8.6902502370737000   T   T   T
  4.0189640305614605  5.6678157472745401 10.8695610571770587   T   T   T
