Pt Pd Ni Co Fe 
 1.0000000000000000
     8.9645670000000006   -5.0970750000000002   -0.0554420000000000
     0.0644260000000000   10.3118449999999999    0.0416760000000000
    -0.0230490000000000    0.0365270000000000   22.9434980000000017
 Pt  Pd  Ni  Co  Fe 
  15  16  18  14  17
Selective dynamics
Cartesian
  5.3870828187918800  5.9518448315948005  2.1903580643572802   F   F   F
  8.4714948620569697 -1.7016070776169403 10.7452874997509404   T   T   T
  6.1082269248675898 -3.0251069348224000 10.7973619716507407   T   T   T
  0.0748261185999300  2.0180689770956999  6.5386775118362612   T   T   T
  5.5074742551207096  5.8868568360772295  8.5734656139418615   T   T   T
  2.4897630352097901  3.3122842814005198  6.4494445645852201   T   T   T
  3.1108389734638497  4.5765727658316395  2.2200361440076199   F   F   F
  5.4736043491441704  3.2765891183954396  2.1412797793182201   F   F   F
  8.4304522560003310 -4.3530568970156898 10.8423825991295004   T   T   T
  3.1996614100252700  7.2088648736020104  8.6445053997669401   T   T   T
  1.7240972492627002  2.0090247608398597  4.2132858029558804   F   F   F
  8.3948903863178916  3.2125248473095698  4.2107817997867807   F   F   F
  8.3363933556863898 -4.4341334078142900  4.2143548522103407   F   F   F
  0.8416177673713200  8.3797290976918699  8.5499277686725996   T   T   T
  0.8970163588304201  0.6957275773865600  8.6263320591020403   T   T   T
  8.3888916762778702  3.3257726116869697 10.8088052901551013   T   T   T
  5.3198535968514600  0.7027058501848499  2.1030956998902401   F   F   F
  3.1940267786422005  2.0088846670850797  8.5892758217797205   T   T   T
  1.6818436536585002  7.0779130562310204 10.9035672678363600   T   T   T
  3.8489081295774299 -1.7304510126476602 10.8218876717206207   T   T   T
  8.4049067444106988 -1.7706763441735101  4.3305708301336807   F   F   F
  6.0600102772382805  4.6123216018504296 10.8971503220097610   T   T   T
  6.1027964217414796 -0.5341592115453601  4.3462863305578407   F   F   F
  4.7628954155978001  7.1815463157199702  6.4693354860450798   T   T   T
  2.3423256797126100  5.9083196461429397  6.4789975408099014   T   T   T
  6.0569284711694111  1.9657686324910499 10.8095182188239409   T   T   T
  5.4793698502729713  3.2523419577582695  8.5122943655179011   T   T   T
  7.6388748138537608 -3.0928996619441702  2.0820915662532800   F   F   F
  3.8907452164992300 -1.9529003018489701  4.2754445050562202   F   F   F
  1.7044892512269501 -0.6570281212761000  4.2506117364040605   F   F   F
  7.6604480056419799 -0.4703623935913703  2.1224154197492004   F   F   F
  3.1853399165156104 -0.5484177080785801  8.5161673114511807   T   T   T
  0.9436131066630500  3.2758924776550398  2.1555366363757802   F   F   F
  8.3924522891974096  0.7630345634271296 10.5931452417145415   T   T   T
  4.7672402507029501  4.5234421785075396  6.3909082049810602   T   T   T
  6.1169048187337811  4.5605297816928605  4.3095715048250405   F   F   F
  3.9000825506956098  5.8301186427116996  4.3561074636363006   F   F   F
  8.4479339068853321  0.7504322492784800  4.3213217414425804   F   F   F
  3.8713620494990102  5.8149335096045895 10.7123903469296611   T   T   T
  1.6820086118226902  7.0628998684053306  4.3576128834506207   F   F   F
  0.1632012822597800  9.6746139387133017  6.4944129479083603   T   T   T
  3.1372897508394000  4.6052792483758997  8.6399056996410799   T   T   T
  6.0966042464075896 -3.1676756101544696  4.2979834548116607   F   F   F
  3.1206443418142205  7.2933173037391104  2.1258434527795602   F   F   F
  1.6728236251360502 -0.4674792917890901 10.7360385131906604   T   T   T
  0.0886827161214500  7.1043941466929903  6.4745333383653811   T   T   T
  0.9476342752742800  0.6020212442032500  2.0803049053747200   F   F   F
  2.4066708691316903  8.5350747557223698  6.5178408074440206   T   T   T
  2.4496163237362198  0.6796364608200499  6.4336776523543202   T   T   T
  3.9110449744960003  0.7808161282998097  4.2608044967819607   F   F   F
  4.5854074056256113 -0.4627444041542803  6.4784031147081400   T   T   T
  0.0450218869388600  4.6384556103882799  6.5824332521122004   T   T   T
  1.7736519673883102  2.0377123940212400 10.7436296041023809   T   T   T
  7.6690681565261407  4.6162639107132399  8.4777931004269611   T   T   T
  0.8565304817463900  3.3999938091967499  8.6314088430139009   T   T   T
  6.9417344722038408  5.8017627247583299  6.4415862505960808   T   T   T
  3.8174625942078100  0.7069687505404698 10.6457426697260207   T   T   T
  1.7064306128427404  4.5765577938611788 10.6024729040919610   T   T   T
  6.1182840242960594 -0.4960997762855497 10.5570706985810823   T   T   T
  1.6838353074473402  4.6500639295675796  4.3384246163743603   F   F   F
  4.7700962697947205  1.9402149911303002  6.3126137703854406   T   T   T
  0.8452443185772101  5.7956908429466401  8.6229741038383416   T   T   T
  7.6361017391664712  1.9338501822128198  8.5119878667968614   T   T   T
  6.9532569103729012  3.3618102516624098  6.4199797188563208   T   T   T
  6.1475578831355504  1.9961974845924599  4.2959753701033803   F   F   F
  6.9167797584376602  0.7817529162082603  6.4899932997572405   T   T   T
  5.3671340583720717  0.6702951652109400  8.6012314471615809   T   T   T
  3.7222706683878597  3.3495218230000297 10.7543132497568408   T   T   T
  6.8479388268697603 -1.7730473796662705  6.4570180004716802   T   T   T
  7.7419376633189003  2.0091791796972998  2.0305414884455204   F   F   F
  0.9495897264283101  5.8730926849553207  2.2589322638409404   F   F   F
  3.9220389167086398  3.3200706070967394  4.2947413434796404   F   F   F
  7.6787022410662518 -0.4754713881961103  8.6001373505500620   T   T   T
  5.4280984835416808 -1.7253779913559102  8.5726607371866006   T   T   T
  5.3476260759139098 -1.8655597480013597  2.1358807246250202   F   F   F
  0.9082608755440802  8.3550907069620202  2.1285184107234403   F   F   F
  3.0772893685651601 -0.5668594718032401  2.0913831529290401   F   F   F
  7.5960602702042612 -3.0837441815572699  8.6332825496512804   T   T   T
  7.7483230520549302  4.6192245030598604  2.0849841662146202   F   F   F
  3.0990653512511206  1.9524236310853897  2.0779178670889604   F   F   F
