Pt Pd Ni Co Fe 
 1.0000000000000000
     8.9788379999999997   -5.2082129999999998   -0.0213960000000000
    -0.0412480000000000   10.3512199999999996    0.0130200000000000
     0.0054110000000000    0.0005430000000000   22.9185650000000010
 Pt  Pd  Ni  Co  Fe 
  14  17  16  18  15
Selective dynamics
Cartesian
  7.6981595499076700  4.5507642039061000  8.5798495360900304   T   T   T
  3.8241186304850201  3.3726755009190708 10.8489104832980399   T   T   T
  3.0398723230015201  4.5794693918747189  8.5222689468371602   T   T   T
  3.1500134754921101  7.1788042895344502  8.6291188756974115   T   T   T
  0.0434180834804800  7.1295629977735002  6.4566308434238406   T   T   T
  6.8685033602257990 -1.8854013642917899  6.3766303111323408   T   T   T
  7.6009129494894196  4.6132075798908501  2.1552218073080400   F   F   F
  2.3360203719164194  8.4438223249598909  6.5094925514714008   T   T   T
  3.2118574091799204  7.1291979565156893  2.1541807410250602   F   F   F
  4.6937444001140793  1.9863488339109503  6.3560105611345410   T   T   T
  7.5582525043471298  1.9924428401966296  2.1785904164812702   F   F   F
  0.9157907676676700  5.8182674441230500  2.2292015144041701   F   F   F
  3.8992219582130900  3.3433551464980402  4.2189838639331700   F   F   F
  8.5086495821485393  0.6741337083721806 10.7690065631287410   T   T   T
  6.1322025542333298 -0.6543579371935795 10.7790663201908909   T   T   T
  0.1360322435748200  1.9903369780834201  6.4538116732926198   T   T   T
  7.6209238686608405 -3.1741347316664004  8.6571213536636016   T   T   T
  3.1466441412764499  1.9473228138803205  2.1664615543788899   F   F   F
  7.5904818011797799  1.8786096976521600  8.5771949210515803   T   T   T
  6.1536962832817501  2.0382702520697307 10.8690438944380912   T   T   T
  4.6400099078941910 -0.6471243461141400  6.4298166914943096   T   T   T
  1.6060573262232098  1.9518764454873201  4.2838041007964902   F   F   F
  6.7729740528706497  5.7885171975889991  6.3542573873271708   T   T   T
  5.3681238108711504  3.2968910314690199  8.5361406676178309   T   T   T
  7.5778232812093202 -0.7120675053215602  2.2097767403574804   F   F   F
  2.3516087260043501  0.6701208964941598  6.4485764622281501   T   T   T
  6.1211585681707099 -3.2787724104726697 10.8620691641130893   T   T   T
  3.1814502036198502 -0.6293723882927499  2.1491083189296298   F   F   F
  3.7604004804886797  0.6210881650006397 10.8840205174031208   T   T   T
  1.6285037957867998  7.1735624794022401  4.4164558931425200   F   F   F
  3.0868229289741200  1.9253607582897903  8.6205421035621796   T   T   T
  5.3806779675422405  0.6626019246464702  2.2360097222765400   F   F   F
  1.6080170618088299  4.5510966158005708 10.6661959018688499   T   T   T
  5.4346789406024598 -1.9706230782870600  2.1245341666486999   F   F   F
  3.9112373223580601  5.8733577496507587  4.2389657535399001   F   F   F
  2.3578231181301197  3.3627325087157298  6.3957743934641407   T   T   T
  5.3550538479123890  5.9013039004121506  8.5918940083770501   T   T   T
  0.9324359086031100  0.6212508200174200  8.6803034160124710   T   T   T
  3.9126539160597096  0.6116308844049601  4.2794181412363903   F   F   F
  1.4966020600911900  1.9906817357162001 10.7013129417814312   T   T   T
  8.3397206931362486 -4.5234432934256388  4.2202297694188902   F   F   F
  0.8403565851943899  3.2118160218449998  2.2117388787444701   F   F   F
  7.6440017680265999 -0.6397177144646203  8.5396301029571191   T   T   T
  2.3997809377754602  5.7807024039016994  6.4030838851708207   T   T   T
  1.6535418459916298 -0.6262523938456900  4.2691329113219307   F   F   F
  3.1377047227881198  4.5616972532853000  2.1519826502706798   F   F   F
  6.8605501558391895  3.2715808936045296  6.3132161303077305   T   T   T
  0.9139606639860599  8.4686744267619698  8.6968462490415206   T   T   T
  6.1398893831714600  4.5445905141834801  4.2460712249242203   F   F   F
  8.5036113816228198 -1.9118517366193002 10.6675841919290999   T   T   T
  1.5695747333478898  4.5429017749520391  4.3668567168710100   F   F   F
  3.8359761501956391  5.8735577146522209 10.7006858957187596   T   T   T
  5.3957786824303797  0.5326312815604505  8.5671334098040806   T   T   T
  8.3098294592862096 -1.9267845462439099  4.3023686438286299   F   F   F
  8.2736709251013796  3.2331483962339900  4.3164912169118397   F   F   F
  1.6002469113622597 -0.6675190911423300 10.6555792424166409   T   T   T
  5.3444390464836600  3.3720084525468805  2.1064798581237403   F   F   F
  0.1874080516171400  4.5614552474367800  6.4618628104503006   T   T   T
  4.5701655433955288  7.0781032133409507  6.3714376343748311   T   T   T
  3.8256422493621698 -1.9734824595537297 10.7151579433349511   T   T   T
  6.1376637362444990  4.5759288730440000 10.6819575290890203   T   T   T
  5.3497964444922799  5.8042587160604802  2.1768357338723199   F   F   F
  7.5947373436527492 -3.2104239970961892  2.2386521130934902   F   F   F
  0.0754143370449000  9.7064725213172096  6.3360280522929600   T   T   T
  5.3771623591645588 -1.8353946023291694  8.6152817983306598   T   T   T
  3.1189089829628700 -0.6391753392952102  8.7022546415590103   T   T   T
  4.5496793833141496  4.6186014045967401  6.3635996417841101   T   T   T
  0.8383536297750199  3.2682821125854100  8.6255409768808011   T   T   T
  3.9168476420779297 -1.8956478022700698  4.2550945243283502   F   F   F
  0.8955600578920400  0.6302141179633400  2.1746584184948401   F   F   F
  8.4005540600828894  0.5972304914798602  4.3202537573103301   F   F   F
  0.8367828635290199  5.8154592075873692  8.5392290444277208   T   T   T
  6.1333675015952505  2.0270191112707194  4.2554068076356906   F   F   F
  6.8738378965587996  0.6518351286537800  6.4030910062691602   T   T   T
  6.1766593521010593 -3.2632444910199094  4.1695804740393196   F   F   F
  8.4055670423529207  3.2993127437111496 10.7013805653184590   T   T   T
  8.4606763628430599 -4.5281653586808002 10.7220238056016210   T   T   T
  0.8864008493122700  8.4740832171745311  2.2039772637182500   F   F   F
  1.6820552254572299  7.1853746661178501 10.7424520145060107   T   T   T
  6.0545899712657496 -0.6603838256964599  4.2317364992277104   F   F   F
