Pt Pd Ni Co Fe 
 1.0000000000000000
     8.9564489999999992   -5.1570619999999998   -0.0271120000000000
     0.0040050000000000   10.3273039999999998    0.0160500000000000
    -0.0007110000000000    0.0043940000000000   22.9221719999999998
 Pt  Pd  Ni  Co  Fe 
  14  14  18  17  17
Selective dynamics
Cartesian
  3.8589897517146898 -1.9024202136387802 10.6941514104817195   T   T   T
  0.1033799314838400  7.1760900186231806  6.4283267945359794   T   T   T
  6.7911337715757290  0.6772162096761601  6.4436202122640998   T   T   T
  0.9367040009220300  0.6937850210608000  8.6185783642995801   T   T   T
  6.0298564906049394  1.9872208884887406 10.7697970575075797   T   T   T
  5.3693294947036199 -1.9282660622261796  2.1660517766565799   F   F   F
  3.0728004247644303  4.4705504675108605  8.5993504720937590   T   T   T
  6.2219084822630091 -0.6265853181824393 10.7118477128427401   T   T   T
  4.6861012538389790  7.2120184014957607  6.5331870949988797   T   T   T
  3.0932895416499897 -0.5624341614634399  2.2287870936206602   F   F   F
  7.6108983995753983 -3.1001821795290794  8.4959560554539593   T   T   T
  2.3722882606128599  8.4893093502634596  6.4685445577888601   T   T   T
  2.4153438071164492  0.8004768487591203  6.3659232314118999   T   T   T
  3.8809372408981195  3.3465316861107799  4.2494234849108601   F   F   F
  7.6712127001193702 -3.2311567095729394  2.2168095083451198   F   F   F
  6.2054991447946186  4.5968953555541008 10.9212049726905800   T   T   T
  5.4006020397697503  3.2841272871212004  2.1274969764408600   F   F   F
  7.6488536375980187  1.9747082015441806  2.1334775190525801   F   F   F
  8.4511381616173793 -1.8565402960131596  4.3013317295692000   F   F   F
  7.6260645651744889  2.0079123221428805  8.6339450691290995   T   T   T
  5.3829327153411004  5.8151281450939196  8.6834220803175199   T   T   T
  6.0927736364864096 -3.2870185415741799  4.3743477350891595   F   F   F
  2.3654899340184596  5.8222289180372595  6.4000312844140197   T   T   T
  1.5872155266666601 -0.5565800920001001 10.8854712889951806   T   T   T
  4.7277618223578290  4.5328555408450599  6.4103068894819195   T   T   T
  3.7475620550420397  5.7953299724167806 10.9028366491863391   T   T   T
  6.0917418536803192 -0.5683981391728999  4.2754380865164201   F   F   F
  0.9559215529310700  5.8569386235745995  2.1763371181949402   F   F   F
  6.1556298992491492  1.9978116932937409  4.2542864562780798   F   F   F
  0.9130037762547900  8.4457100210054215  8.6535650946106397   T   T   T
  3.1303599903834294  4.6015094344370002  2.1420667333536998   F   F   F
  1.5873575352163196 -0.6628704536719999  4.3151681183353601   F   F   F
  0.9884434479041699  3.2618927771017603  2.2320193319967401   F   F   F
  0.0870075855483300  9.7455669116377202  6.4463414820729792   T   T   T
  5.2989029284580997  0.6961753227784000  8.5520905274874401   T   T   T
  5.3260739269937103  5.8180302331574003  2.2097667353720603   F   F   F
  7.6679775336266092 -0.5756209981122593  8.5674674535286801   T   T   T
  0.9208959104599199  0.6747199091916599  2.2585246231964997   F   F   F
  5.3662392459395090  0.6882510267170003  2.1560981193743798   F   F   F
  0.1647150651179100  1.9906161198672598  6.4141134817133203   T   T   T
  3.7893428024765399 -1.9102393397676998  4.3424106188118197   F   F   F
  3.1764700603413898 -0.5802645574056200  8.5876936151073995   T   T   T
  0.9028524311452799  5.8493271060854797  8.6099677020125611   T   T   T
  5.3697726689680785  3.1967209190111201  8.5266415937659197   T   T   T
  5.3736804025022691 -1.8042022469890602  8.5637950162518397   T   T   T
  4.6155610750177800 -0.5583103049907998  6.4743272956994398   T   T   T
  8.4680806651793095 -1.9054271559260396 10.6088003052481792   T   T   T
  1.6521027000339596  7.1819873651965001  4.2742535782082198   F   F   F
  3.7912744547100896  5.8979717600997406  4.1990102978886403   F   F   F
  3.1966315710543896  1.9330668969236799  8.5836946279373798   T   T   T
  3.8438924265475194  0.7504171069715401  4.2273653455880993   F   F   F
  3.0451900343827498  7.1912757749633407  8.6466272567758402   T   T   T
  1.6581680251920901  4.6292687508561601  4.2740832305989800   F   F   F
  8.4502500804850484 -4.5578746338462199  4.3789318155940000   F   F   F
  3.0699055733551197  1.9786570578329603  2.1931312883990399   F   F   F
  1.6612038669909601  1.9427826497087797  4.2073830777046997   F   F   F
  8.3177392334090410 -4.3517852823282999 10.6373331122102996   T   T   T
  0.9147212472546000  8.4393838875694787  2.2862811138371599   F   F   F
  6.9039939185538284 -1.8503030438337000  6.4381557052298399   T   T   T
  1.5191440654817698  4.5797835197669405 10.6335345575520801   T   T   T
  1.5782802983540998  7.1165709586486203 10.6164902582596987   T   T   T
  8.3923288592565601  3.3489450821713596  4.2310546945894005   F   F   F
  2.2916620399723198  3.2984267949692003  6.3941781118215992   T   T   T
  8.4203389877626780  3.2375574435817205 10.7356254743310799   T   T   T
  3.1409427857448593  7.1305459869373404  2.2729584031380199   F   F   F
  1.6476977959175698  2.0430787477591599 10.6951831058858193   T   T   T
  7.6414322242731592  4.5713017257319803  8.6178466541718599   T   T   T
  6.2264964365041493  4.5345721194653787  4.2304181658555997   F   F   F
  7.0100175535594191  5.8335137548317997  6.4196204551251199   T   T   T
  0.8695369899893699  3.3075903921398000  8.5929534008021804   T   T   T
  6.9169946066762389  3.3334681211261405  6.3920420384850996   T   T   T
  7.5966801129809998 -0.6305575224173000  2.0734970939818598   F   F   F
  6.2196980547912304 -3.1345447202336403 10.7349953018614208   T   T   T
  3.7882300481026197  3.2062140791096794 10.6722770763644004   T   T   T
  8.4164894230572003  0.7786519783995205  4.2946841770678805   F   F   F
  0.1459241964368100  4.4782511560349798  6.5064150749558793   T   T   T
  7.6667828831315088  4.5701741828733411  2.1686339270022801   F   F   F
  8.4647167153043394  0.5996899326758391 10.6879450629676800   T   T   T
  4.6227873451868993  1.9883804346451999  6.4154628709420791   T   T   T
  3.8455484632708501  0.6994186254118999 10.6048386306898408   T   T   T
