Pt Pd Ni Co Fe 
 1.0000000000000000
     8.9645670000000006   -5.0970750000000002   -0.0554420000000000
     0.0644260000000000   10.3118449999999999    0.0416760000000000
    -0.0230490000000000    0.0365270000000000   22.9434980000000017
 Pt  Pd  Ni  Co  Fe 
  15  16  18  14  17
Selective dynamics
Cartesian
  5.3870828187918800  5.9518448315948005  2.1903580643572802   F   F   F
  8.5315415364379010 -1.7876068157422702 10.7285855877383618   T   T   T
  6.1805687201330413 -3.1086188634022305 10.8152794989438803   T   T   T
  0.0768026326811900  2.0118166135554900  6.5346332662657005   T   T   T
  5.5375491786429203  5.8325589742588297  8.5537160833182799   T   T   T
  2.4814794885445806  3.3022796257935498  6.4299557645132799   T   T   T
  3.1108389734638497  4.5765727658316395  2.2200361440076199   F   F   F
  5.4736043491441704  3.2765891183954396  2.1412797793182201   F   F   F
  8.4929214919278699 -4.4405667224087200 10.7931258864083404   T   T   T
  3.2158444046139305  7.1450056863891502  8.6317150331184607   T   T   T
  1.7240972492627002  2.0090247608398597  4.2132858029558804   F   F   F
  8.3948903863178916  3.2125248473095698  4.2107817997867807   F   F   F
  8.3363933556863898 -4.4341334078142900  4.2143548522103407   F   F   F
  0.8756961369061301  8.3202669622965395  8.5126626431880617   T   T   T
  0.9451975313226001  0.6496069948879499  8.5563669068342403   T   T   T
  8.4081409810596313  3.2347646859696098 10.7391321891644616   T   T   T
  5.3198535968514600  0.7027058501848499  2.1030956998902401   F   F   F
  3.2604424455491001  1.9370937080905197  8.5177143452617212   T   T   T
  1.7061329920640000  7.0140670128488098 10.8719917389939607   T   T   T
  3.9065169003678499 -1.8122601448200901 10.8302754568424611   T   T   T
  8.4049067444106988 -1.7706763441735101  4.3305708301336807   F   F   F
  6.1040475687987001  4.5338774177941596 10.8439794399714806   T   T   T
  6.1027964217414796 -0.5341592115453601  4.3462863305578407   F   F   F
  4.7766475504578914  7.1827541823592798  6.4612576840846607   T   T   T
  2.3658126824020598  5.8961638576323701  6.4548307448725204   T   T   T
  6.1031478825533600  1.8684706788768195 10.7051164268039596   T   T   T
  5.5219337193443101  3.1985498537805999  8.4535463737825012   T   T   T
  7.6388748138537608 -3.0928996619441702  2.0820915662532800   F   F   F
  3.8907452164992300 -1.9529003018489701  4.2754445050562202   F   F   F
  1.7044892512269501 -0.6570281212761000  4.2506117364040605   F   F   F
  7.6604480056419799 -0.4703623935913703  2.1224154197492004   F   F   F
  3.2435123478940104 -0.6170602181930199  8.4662587525790194   T   T   T
  0.9436131066630500  3.2758924776550398  2.1555366363757802   F   F   F
  8.4274915994611099  0.6879922882097305 10.5485971647205403   T   T   T
  4.7596436579731911  4.5274963611364401  6.3735562346288201   T   T   T
  6.1169048187337811  4.5605297816928605  4.3095715048250405   F   F   F
  3.9000825506956098  5.8301186427116996  4.3561074636363006   F   F   F
  8.4479339068853321  0.7504322492784800  4.3213217414425804   F   F   F
  3.9122344194503205  5.7437104480110488 10.6917427727854015   T   T   T
  1.6820086118226902  7.0628998684053306  4.3576128834506207   F   F   F
  0.1766242782016200  9.6648417213464306  6.4620857209755211   T   T   T
  3.1771511700526398  4.5485858187787693  8.5975348831882403   T   T   T
  6.0966042464075896 -3.1676756101544696  4.2979834548116607   F   F   F
  3.1206443418142205  7.2933173037391104  2.1258434527795602   F   F   F
  1.7398865635368301 -0.5680322077871101 10.6485547318176206   T   T   T
  0.1197689584809400  7.0964217029170902  6.4406757352377602   T   T   T
  0.9476342752742800  0.6020212442032500  2.0803049053747200   F   F   F
  2.4364573402363900  8.5155925471248697  6.4871638230753401   T   T   T
  2.4739523148998801  0.6618006080796899  6.3817800290260003   T   T   T
  3.9110449744960003  0.7808161282998097  4.2608044967819607   F   F   F
  4.6089551681135399 -0.4511162527991098  6.4523245597402408   T   T   T
  0.0788592092959300  4.6213546741503899  6.5527225964241804   T   T   T
  1.8355909744795902  1.9501065569120195 10.6562550159568996   T   T   T
  7.7049097731326004  4.5728462005985797  8.4480167832142801   T   T   T
  0.9203842652483600  3.3416692199910099  8.6128435173036415   T   T   T
  6.9636298214799313  5.8032294575754895  6.4205081385983798   T   T   T
  3.8816735019106803  0.6144164354106801 10.5396355964575204   T   T   T
  1.7577314411667100  4.5208174445156999 10.5622745368677418   T   T   T
  6.1857210949992796 -0.5939838382883298 10.5200214753592398   T   T   T
  1.6838353074473402  4.6500639295675796  4.3384246163743603   F   F   F
  4.7918757702110408  1.9663641454779899  6.2539370124478806   T   T   T
  0.8814515757092700  5.7263136505320604  8.5967167783074210   T   T   T
  7.6749748604763708  1.8577020506217903  8.4498908773022201   T   T   T
  6.9813740369396706  3.3699018386095800  6.3907155374370204   T   T   T
  6.1475578831355504  1.9961974845924599  4.2959753701033803   F   F   F
  6.9638538193004900  0.7789313175204096  6.4483307209165410   T   T   T
  5.4404553129981910  0.5641767274672701  8.4957809667246202   T   T   T
  3.7749560289056103  3.2782175020792002 10.6622873931194206   T   T   T
  6.8377991548734798 -1.7554417632812602  6.4810364156978002   T   T   T
  7.7419376633189003  2.0091791796972998  2.0305414884455204   F   F   F
  0.9495897264283101  5.8730926849553207  2.2589322638409404   F   F   F
  3.9220389167086398  3.3200706070967394  4.2947413434796404   F   F   F
  7.7269881824889612 -0.5690834732676801  8.5790398827222401   T   T   T
  5.4432324559460801 -1.8348846457119499  8.6066286870181195   T   T   T
  5.3476260759139098 -1.8655597480013597  2.1358807246250202   F   F   F
  0.9082608755440802  8.3550907069620202  2.1285184107234403   F   F   F
  3.0772893685651601 -0.5668594718032401  2.0913831529290401   F   F   F
  7.6407377383764397 -3.1669902734079796  8.6284708060155211   T   T   T
  7.7483230520549302  4.6192245030598604  2.0849841662146202   F   F   F
  3.0990653512511206  1.9524236310853897  2.0779178670889604   F   F   F
