Pt Pd Ni Co Fe 
 1.0000000000000000
     8.9737360000000006   -5.1895480000000003    0.0044630000000000
    -0.0247690000000000   10.3424999999999994   -0.0160880000000000
     0.0218050000000000   -0.0357650000000000   22.9062790000000014
 Pt  Pd  Ni  Co  Fe 
  14  18  16  14  18
Selective dynamics
Cartesian
  4.6688540949350905  7.0437341102863584  6.4829208568158299   T   T   T
  3.8434341685613003  3.1618471165721593  4.1720377703352609   F   F   F
  2.4071086868186904  8.4572604285223605  6.4306158689755408   T   T   T
  1.6574827403622101  1.9294906187373198 10.8022168066923907   T   T   T
  6.1434271071937614  2.0061824976669094 10.7946210527790694   T   T   T
  6.8655142404876104  0.6218950146474195  6.5236463178656203   T   T   T
  8.3893042481001014  0.6189827366325290  4.2914068217444701   F   F   F
  7.5941178089244206  2.0238410498887092  2.1339270430715800   F   F   F
  3.8665007774842604  0.5955593080484100 10.8559215633197113   T   T   T
  8.3596551402941106 -1.9385050182358701 10.8492197293035311   T   T   T
  7.6469481008615015 -3.2626062674584309  8.5188685321197610   T   T   T
  1.7469803398494301  4.6525109325631293 10.8570173538544203   T   T   T
  0.1102524558754300  9.8309487699421201  6.3970684371742008   T   T   T
  3.1513807930189204  1.8984383757098993  8.4783663031963208   T   T   T
  3.0879940167717903  7.2065646842525091  2.0383573738187999   F   F   F
  5.3535773816377406 -1.9383100343462905  8.6740518442079306   T   T   T
  5.2911096639882409  0.6145995532517596  2.1562708040735301   F   F   F
  0.2021121353490000  4.4262666645401696  6.4694224699082206   T   T   T
  7.6274873027454309 -0.7448354201928007  2.1230267904965299   F   F   F
  0.1701152627887000  7.1362573975300494  6.4910784258671610   T   T   T
  3.1742586511272499  4.5483045974742407  8.5324176400064111   T   T   T
  6.7821678076376601  3.2710290756732694  6.4937666455003109   T   T   T
  4.6301603424741611 -0.5673501442415603  6.4400389406109797   T   T   T
  6.2336876798260006  4.5046113786599404  4.2346264934421400   F   F   F
  5.4439638787326610  5.8790764767157597  2.0884195399175400   F   F   F
  8.3171797209386593 -4.6834227536912696 10.7964507610894902   T   T   T
  3.8796880743561704  5.8898649734904707  4.2374955943543302   F   F   F
  0.8535181852744901  5.8226760780775990  8.6743101532619402   T   T   T
  6.1229310074269012 -0.6579939530829099 10.9040755576877615   T   T   T
  6.2200378730155998 -3.1225489654787699  4.2300273507578501   F   F   F
  0.8565131196500700  8.4850333166716592  8.7026025353134813   T   T   T
  1.6082730148560105  7.2612302910314996  4.1956368765854002   F   F   F
  6.1247579379391199  1.9315150185415597  4.2653890679709203   F   F   F
  4.5845343499057902  4.4983202292843796  6.4493509628489205   T   T   T
  1.6714208156538801 -0.6948498796795100 10.7591042985461502   T   T   T
  0.8463777091582401  0.6792340854452498  2.1292028348511503   F   F   F
  0.9306298231114501  5.7488227154250291  2.0877640377489102   F   F   F
  8.4015468280473709  3.2784073946180290  4.2870843177435898   F   F   F
  3.0827689248922399 -0.6059266449472802  2.1983222187270202   F   F   F
  7.5394842645590403  1.9539579800048092  8.6634779106700304   T   T   T
  6.9457828012758807 -1.9770637910592299  6.3936964887501206   T   T   T
  0.8778680869024000  3.1839066587427198  8.5571062317768813   T   T   T
  8.4531191738295224 -4.5097434252340207  4.2377395114023502   F   F   F
  0.8776715024073801  8.5643067950056189  2.0710513739012701   F   F   F
  4.5725932006946008  2.0060490402897293  6.3873321293631102   T   T   T
  6.0663379861050206  4.5127217109480897 10.6469256803344905   T   T   T
  5.3998911819413502  3.2542215070525193  8.6267390436182314   T   T   T
  3.0882547780026703  4.5345061658782804  2.1293810800148800   F   F   F
  6.0766268597464803 -0.5923327127837904  4.3040505004969196   F   F   F
  8.3912639438106815  3.1443939969410493 10.6856275220834611   T   T   T
  1.5906127408713102  1.9122433164412398  4.1969607746667004   F   F   F
  8.5164697856478497 -1.9732379051797901  4.2869801096066702   F   F   F
  3.1105712028703203  7.1411503939189886  8.6653650661425008   T   T   T
  7.5245244981108712  4.5055426553487194  8.5725459373976509   T   T   T
  5.3168120926736808  3.2260550955950298  2.0916868788170602   F   F   F
  4.0167954152208507  5.8823143441320491 10.6699779341841801   T   T   T
  3.9215052421491103 -1.7871002893979799  4.2926539765271201   F   F   F
  6.0456185311753003 -3.3324702899004306 10.7901402164965301   T   T   T
  7.5787336134246202 -0.6136095049076298  8.6487056154181516   T   T   T
  3.9603225577757999  3.3188060094881497 10.7307684278484299   T   T   T
  1.7107274582525303  7.1761537329427698 10.7574016985379899   T   T   T
  3.0754867689479299  1.9173441830332891  2.1953668739203005   F   F   F
  3.0975070620416902 -0.6744618733370302  8.6579581940663406   T   T   T
  6.8721264012270904  5.8606167757668386  6.4169649036526097   T   T   T
  2.4008219007105907  0.7692168214311997  6.3417579283289811   T   T   T
  1.5994919073465401 -0.5134685879653502  4.2105758266193805   F   F   F
  2.4329389275245297  5.7702008791889092  6.4046599608645902   T   T   T
  7.7017892410897302  4.5144821194164182  2.1137676487933299   F   F   F
  3.7855975647597000 -2.0299347750389400 10.7654157419644605   T   T   T
  2.4036168030719902  3.1708966186367400  6.3952480053867307   T   T   T
  3.8579979893453600  0.5836011763921797  4.2781421126485597   F   F   F
  8.3900366113927003  0.6869247953272295 10.7707467972619106   T   T   T
  0.9359308477885201  3.2168383822531799  2.1969178725793101   F   F   F
  5.3400357891770209 -1.9041534564875500  2.0917558592520802   F   F   F
  7.7822544619495302 -3.2591774852262301  2.1367210330127300   F   F   F
  1.5930269966858701  4.5044938514067798  4.2208811355935802   F   F   F
  0.8981952652438602  0.7250311755087900  8.5740819069125411   T   T   T
  5.4487146664970210  0.7154110327307897  8.6359350874365717   T   T   T
  5.3900814516094311  5.7431238284224380  8.6678889569595992   T   T   T
  0.1241257219156800  1.9980450965192398  6.3483506631749007   T   T   T
