Pt Pd Ni Co Fe 
 1.0000000000000000
     8.9674209999999999   -5.1014980000000003   -0.0417960000000000
     0.0607130000000000   10.3143170000000008    0.0324100000000000
    -0.0101430000000000    0.0251350000000000   22.9479520000000008
 Pt  Pd  Ni  Co  Fe 
  16  16  17  17  14
Selective dynamics
Cartesian
  4.0284555656300496 -1.8424350387328101  4.2936683678399001   F   F   F
  3.9248118494380999 -1.8429856600269201 10.7530362745533008   T   T   T
  1.6728833707116197  2.0221988741695904 10.8305306241653998   T   T   T
  0.8649898046648800  5.8512592315567016  8.4666212045936007   T   T   T
  8.3734243123379901  3.3535515986343101 10.7292881967399598   T   T   T
  3.2101783293283104 -0.5702884705968102  8.5390775404151213   T   T   T
  3.2802238921456297  7.1735324873632909  2.1902359007509999   F   F   F
  6.8998345445096092  3.1619535195083710  6.3951047730403801   T   T   T
  1.6575393604771800  2.1031493612146401  4.1950909539355399   F   F   F
  4.6334449331536796 -0.5338091478607597  6.4796166830307804   T   T   T
  3.2526545530511299  4.4349708494899405  2.2158658700397402   F   F   F
  7.5980331885796391 -3.1235183767655901  2.0674907016469199   F   F   F
  8.3599682754293010  0.7324924960634198 10.7149816815772798   T   T   T
  8.3069580419275599 -1.8734363549376198 10.7516939344806808   T   T   T
  5.4703904538170107  0.7239080253472102  8.5095285111722596   T   T   T
  0.2364673862994800  9.6261522691491308  6.4797524083235007   T   T   T
  0.9201305122437200  0.7743107494498801  8.5891141810084406   T   T   T
  3.2342492246250298  4.5221835706668099  8.6305246043967401   T   T   T
  8.3001918040758209 -4.4535587580797200  4.2024242376607601   F   F   F
  6.9058598691704001  5.8954686765483704  6.5098915978990206   T   T   T
  1.6203301708636899 -0.5371249360777801 10.7970442487222815   T   T   T
  1.6727192849411301 -0.5728493003180800  4.2140813762449598   F   F   F
  7.6759079866123203  4.5722008576675304  8.6503652097613610   T   T   T
  5.5234904667490401  3.3020055332145200  8.6082355545493598   T   T   T
  7.5894853884197104 -0.5101626743790598  2.2127306223028200   F   F   F
  4.0178656142457996  0.8028478270733999  4.2981152379914800   F   F   F
  3.9159496316711202  3.2586850545928998 10.7842125735181202   T   T   T
  3.8922500343794999  0.7968005861831797 10.7293223590702009   T   T   T
  0.0937414019958600  2.0823970790292301  6.4580356668067802   T   T   T
  1.6628506147300199  7.1463502474333112  4.3753436063468003   F   F   F
  0.8931688287455399  5.8297374741992707  2.2227248001540003   F   F   F
  8.2731653076112490 -4.3874783169867095 10.7090110394726619   T   T   T
  4.6386344086977207  7.2267036610260504  6.5650525423787807   T   T   T
  6.1474694940183703 -3.1249095376440001  4.2399973822395998   F   F   F
  6.8511657127706300 -1.7524186674486999  6.4568659467340606   T   T   T
  0.9306385556903299  0.6731378202530500  2.0372361471813600   F   F   F
  3.3840660842014700  1.9816009591339900  8.6536105375878609   T   T   T
  3.1768763424817403  7.1238746908007604  8.5944044393397405   T   T   T
  3.1918175428056395 -0.5208598463656400  2.0961608010978803   F   F   F
  6.1224396611829803 -3.1109557311237803 10.6848887890754405   T   T   T
  1.6566832161551601  4.5176438654967299 10.7828790700656203   T   T   T
  2.3830911749890800  5.8758212422588798  6.4160938250070609   T   T   T
  2.4072457044228601  8.3944879388956117  6.5533330666292606   T   T   T
  1.6721639069904801  7.1741595407206500 10.7333090793500006   T   T   T
  4.0361485249533500  3.3204761527429598  4.3010967390088801   F   F   F
  3.1415898826463495  1.9269449209921705  2.1250687144858200   F   F   F
  6.1322577496471808 -0.5774150141332498 10.7006356453174796   T   T   T
  4.6681291454572102  4.5525650046310906  6.4365684115915203   T   T   T
  7.6491089252840894  2.1354110730519098  2.1866903189069999   F   F   F
  2.4207308839982402  3.2642507194898407  6.4597221226306800   T   T   T
  0.1204833831858800  4.6587187000005814  6.3611627092724206   T   T   T
  6.1868294112850988  4.5775769702093898 10.7176979746812400   T   T   T
  5.4678943591042000  5.9372037360362100  8.6704379721957991   T   T   T
  5.3788437067923400 -1.7677079675184204  2.0849515216360399   F   F   F
  7.6174112897855011 -0.6001787554081097  8.5093341813372607   T   T   T
  5.4966166840644899  3.2370777690465697  2.1570100802291803   F   F   F
  8.3225940363898303  3.2359568187135501  4.1931240151404001   F   F   F
  0.8002155748996299  8.5093730748971197  2.1871078873244003   F   F   F
  3.9911361663018701  5.8402186231923299  4.3195969426092402   F   F   F
  6.2005581273662207  2.0835775340475804  4.1660448789768596   F   F   F
  1.6858347970057999  4.6144003526486701  4.3667504090568805   F   F   F
  4.0578812194819003  5.8169987072739202 10.8052499113805407   T   T   T
  7.6131611666279699  2.0094249557950206  8.5664788720990792   T   T   T
  8.3950433173004715  0.7783910615432897  4.3239354610956804   F   F   F
  6.1115291157488691  4.5780337078787801  4.2484466087747803   F   F   F
  4.6523103281644298  1.9399841398657505  6.5108188180189606   T   T   T
  6.9169189750511411  0.6301077211764297  6.4341166607379003   T   T   T
  0.9474452781353200  3.1973694537630801  2.0442033043096801   F   F   F
  6.0956352378315195  2.0963669380553100 10.7263361640480799   T   T   T
  5.3407797687023093  0.7082166074155800  2.1419765822855399   F   F   F
  0.8541048728879499  3.3119538817840604  8.5692420688092206   T   T   T
  7.7212296936724698  4.5635070026837399  2.1376062867057799   F   F   F
  7.5914096196160488 -3.0604339797447802  8.6266854679994207   T   T   T
  0.8090138646311499  8.4231085700340920  8.6109180763847792   T   T   T
  2.4662572054012997  0.6749695643011400  6.4553151740365005   T   T   T
  8.3458548342141192 -1.7799087242168503  4.3036154357693199   F   F   F
  5.4550720733919409  5.8041334138364897  2.1824421521002200   F   F   F
  6.2159801102689505 -0.5417943876518303  4.3751526608642202   F   F   F
  0.1741230106471000  7.0951546670283907  6.4325047010453202   T   T   T
  5.4815879715742595 -1.8835284408024402  8.5981584218288400   T   T   T
