Ru  Rh  Pd  Ir  Pt                      
   1.00000000000000     
     9.0042196513834405   -5.1816049704556733   -0.0032803803665809
    -0.0273906419229299   10.3222154506969215   -0.0072348151389254
     0.0169439754674682   -0.0247731476155639   12.9374823001325634
   Ru   Rh   Pd   Ir   Pt
    19    19    19    19    20
Selective dynamics
Direct
  0.8401382977676749  0.1246976391451595  0.1644317501147311   T   T   T
  0.4389122408481267  0.0248308858394416  0.8331975043878036   T   T   T
  0.4325721512573385  0.5312260711253159  0.8327626848988060   T   T   T
  0.8526706493925649  0.6280404976871472  0.1665128030013330   T   T   T
  0.9286206924559400  0.7679757840740820  0.8412256477995791   T   T   T
  0.3558875856812203  0.1152089539803960  0.6652241995842632   T   T   T
  0.9332556871463017  0.0367764776047681  0.3280712194761458   T   T   T
  0.2730347575673742  0.2060320347408513  0.0079533955999225   T   T   T
  0.5168505146997054  0.9422391372232285  0.0051397186042763   T   T   T
  0.6982688679728437  0.2890317192726424  0.8283954336519226   T   T   T
  0.1814843972960257  0.0238669531499579  0.3250211355252051   T   T   T
  0.8454877233516715  0.8637152824377848  0.6645810826984689   T   T   T
  0.6827678227067250  0.7886756563254633  0.8411221333653640   T   T   T
  0.0147230781817639  0.2139385847563624  0.4988067022739057   T   T   T
  0.5940567061520631  0.8745855370090322  0.6702543227328122   T   T   T
  0.0127450826504645  0.9396906523576573  0.0116213733517430   T   T   T
  0.6791269294007022  0.7738007207468046  0.3295154931775104   T   T   T
  0.6881273143132337  0.2721407555588859  0.3247931988311458   T   T   T
  0.5216984124173777  0.2034594679238262  0.4977462336288171   T   T   T
  0.7636007267986583  0.9503395770016514  0.4983857074430339   T   T   T
  0.9474739992839807  0.5404309458334685  0.3301804962228712   T   T   T
  0.8438379064375497  0.6033235099982098  0.6656517442501476   T   T   T
  0.0983444193506787  0.8582552121842282  0.6647168182544986   T   T   T
  0.0993467782511984  0.1263902282952170  0.6689535722222626   T   T   T
  0.7648685061356872  0.4573296349832232 -0.0030062312371936   T   T   T
  0.3444665684746153  0.6109610587488273  0.6574473747195902   T   T   T
  0.4247547380407126  0.5306873670503984  0.3334052228528140   T   T   T
  0.3463383321574127  0.6160599409557498  0.1635328608891736   T   T   T
  0.7738983097738117  0.4563569596179985  0.4953609474875384   T   T   T
  0.2583750389044343  0.9366662551589089  0.4945947051078484   T   T   T
  0.5100445602831375  0.9411751636403320  0.4943693767318886   T   T   T
  0.0189551854621853  0.4518839358228547  0.0011352772395742   T   T   T
  0.0141481308611872  0.1973685597525923 -0.0012852649686784   T   T   T
  0.2667340335538569  0.2070360448740284  0.4964462236648019   T   T   T
  0.1804073908017345  0.0308972286054614  0.8377798491940910   T   T   T
  0.4364955838456528  0.2841200090393812  0.3235656108276522   T   T   T
  0.4373543255359351  0.2837514085700714  0.8359941010377533   T   T   T
  0.1786879918943697  0.5330670186105665  0.8306010742914037   T   T   T
  0.1079316000157198  0.8639303490252542  0.1661439130642542   T   T   T
  0.5219689372890900  0.4606540360713092  0.4998395001479226   T   T   T
  0.7632209704929268  0.9463699601931925  0.0053552802462219   T   T   T
  0.9325150757857007  0.0364491222027814  0.8337638871295397   T   T   T
  0.1803845534299303  0.2862104944569697  0.3265105490072241   T   T   T
  0.1848101511059902  0.7803348961796078  0.8373401678460702   T   T   T
  0.2617920710788336  0.6910894976158132  0.4900723786278050   T   T   T
  0.1010315968254238  0.6129957514848932  0.6588547785763332   T   T   T
  0.1007380790414791  0.6162072357747441  0.1654872283032201   T   T   T
  0.4290906544918858  0.7791227931386531  0.8347799835499604   T   T   T
  0.3494677495630664  0.8673380733016279  0.1685686611753388   T   T   T
  0.7594728230617698  0.1987482906643430  0.9994374879332861   T   T   T
  0.3498501385226874  0.1088271807295382  0.1633857578289771   T   T   T
  0.5163157578886933  0.4559613036197078  0.0068106036457428   T   T   T
  0.5957097061647443  0.3676472768910916  0.6637805511297088   T   T   T
  0.6846309836387814  0.5307402530508379  0.3295658780299462   T   T   T
  0.2650603724485674  0.7033855477143409  0.0009692288526982   T   T   T
  0.5133025688564827  0.6931118601730175  0.0028671294564181   T   T   T
  0.3544457968562734  0.3710549699327404  0.6629283428999264   T   T   T
  0.1779576396943832  0.2846082378868442  0.8334354301864713   T   T   T
  0.6016135293710229  0.6161922834489200  0.1629893381504665   T   T   T
  0.6139569944111661  0.1308523228069240  0.6614411127745692   T   T   T
  0.1818901444454218  0.5267132442898217  0.3376754007300747   T   T   T
  0.7672518359034634  0.7006228347781635  0.4939297943101525   T   T   T
  0.9341073133294044  0.7814212310929740  0.3379612824604352   T   T   T
  0.8483896101053052  0.1266824737586850  0.6699464268845644   T   T   T
  0.6003631490556075  0.8621661870489302  0.1663206422609087   T   T   T
  0.0293568829986206  0.4651672891676715  0.5006337525580290   T   T   T
  0.0062158391160660  0.9370742219598918  0.4948061505588320   T   T   T
  0.1065194321377888  0.1206581630424958  0.1690796046329706   T   T   T
  0.5173652808230146  0.2007493175538032  0.0094671029353439   T   T   T
  0.4274609873742385  0.7871707075462790  0.3285319749713010   T   T   T
  0.8413019239344975  0.8702744352081520  0.1650709811511663   T   T   T
  0.5154635988870382  0.6931131213315929  0.4997625702895166   T   T   T
  0.2654886989974171  0.4561817252552808  0.4954847671735237   T   T   T
  0.3425968409792321  0.8571070507593823  0.6697573410129121   T   T   T
  0.4344807411387663  0.0264424447709741  0.3238596506156053   T   T   T
  0.5976780104147216  0.3651491551711004  0.1606465054483943   T   T   T
  0.1006176417027688  0.3658097547823135  0.1716867295979190   T   T   T
  0.8480624044545009  0.3750752783825841  0.1616216052895851   T   T   T
  0.6962746704683312  0.0407704044196277  0.8374854946302733   T   T   T
  0.5961587689836090  0.6114381148754054  0.6555586002526982   T   T   T
  0.0161291503793894  0.6998104816065409  0.4965894259122286   T   T   T
  0.7685751739959368  0.2039687157167566  0.5016737886673901   T   T   T
  0.9429263565318825  0.5331228187533900  0.8245862427597509   T   T   T
  0.1945494296014322  0.7796723045669230  0.3247549382542717   T   T   T
  0.9448442151393484  0.2928815043935957  0.3322094621180479   T   T   T
  0.7537638616465702  0.7021520303157366  0.0075689806731659   T   T   T
  0.9358617003988056  0.2699261974709607  0.8283955515067980   T   T   T
  0.0986713307803319  0.3711057388376701  0.6646472449381449   T   T   T
  0.3506413472306547  0.3624729277489584  0.1652316204461081   T   T   T
  0.6788890149881927  0.5309577729524410  0.8318123907818437   T   T   T
  0.8517828330545943  0.3581668250172464  0.6600980701023897   T   T   T
  0.0320041309880374  0.7046890482977929  0.0039819865002200   T   T   T
  0.5835929645779697  0.1098356039134664  0.1617386249879482   T   T   T
  0.2721012965968115  0.4556444108576347  0.9973961235908572   T   T   T
  0.6694705914984013  0.0175124234193542  0.3257055040573020   T   T   T
  0.2727636402012463  0.9489294348712409  0.0056809794424097   T   T   T
 
