Pt   Pd   Ni   Co   Fe                  
   1.00000000000000     
     8.9645668151198556   -5.0970749171098131   -0.0554421495051436
     0.0644264900245795   10.3118447725463493    0.0416762950224090
    -0.0230493368417172    0.0365266452305495   22.9434983393530345
   Pt   Pd   Ni   Co   Fe
    15    16    18    14    17
Selective dynamics
Direct
  0.5949166957896495  0.8709108802861820  0.0953231040797604   F   F   F
  0.9543612009222108  0.2916330719177818  0.4694252090082108   T   T   T
  0.6945459630347552  0.0339624826271922  0.4726404804448553   T   T   T
  0.0078883576988189  0.1969973858162397  0.2845753433361039   T   T   T
  0.6154646431709544  0.8637191092186350  0.3721630571086258   T   T   T
  0.2763258499086785  0.4531824467394456  0.2803251224814860   T   T   T
  0.3428579299946790  0.6129476718858555  0.0964761166367083   F   F   F
  0.6063876603320111  0.6171515284148725  0.0936726673571471   F   F   F
  0.9524911241527828  0.0330084261678473  0.4726146277968042   T   T   T
  0.3565668162566287  0.8637696913492249  0.3758215199126058   T   T   T
  0.1907225216047479  0.2884494840631362  0.1835743763712117   F   F   F
  0.9313836194465068  0.7712608402461569  0.1843780085611684   F   F   F
  0.9301956363574675  0.0291270794415297  0.1858789303156030   F   F   F
  0.0958150397029376  0.8495216653705234  0.3701543690906221   T   T   T
  0.1076090331084549  0.1117543404902679  0.3727939607116242   T   T   T
  0.9388742657019966  0.7705615712521006  0.4699632618919624   T   T   T
  0.5910817271255766  0.3599857454258313  0.0924385483474950   F   F   F
  0.3644573309973844  0.3631204974062493  0.3715827669310727   T   T   T
  0.1914526482166895  0.7673958187740352  0.4737725011974738   T   T   T
  0.4411752401575638  0.0349614784756721  0.4734220881027774   T   T   T
  0.9359734912843294  0.2902577453108393  0.1904838724952853   F   F   F
  0.6806733287941449  0.7680847912605113  0.4725363255611197   T   T   T
  0.6792229179000415  0.2832597161832737  0.1905611181603319   F   F   F
  0.5283691420463743  0.9536049209044550  0.2812141559278680   T   T   T
  0.2624413865573740  0.6984049185058463  0.2806428780521665   T   T   T
  0.6829880758541312  0.5107219009495952  0.4673188165157097   T   T   T
  0.6163964006076633  0.6074217821232542  0.3690370363227881   T   T   T
  0.8514898428255364  0.1206210925071289  0.0925871376930587   F   F   F
  0.4343184063776349  0.0246328242381963  0.1873514373575631   F   F   F
  0.1903999072467144  0.0297398261161774  0.1856704012439181   F   F   F
  0.8520698928297321  0.3752260148169526  0.0938835889985299   F   F   F
  0.3631501392695063  0.1141236098622922  0.3697979565452612   T   T   T
  0.1028546933897516  0.3681915481992561  0.0935295228263229   F   F   F
  0.9434373194119682  0.5261146938403716  0.4613913733448834   T   T   T
  0.5288758943802185  0.6952286867822082  0.2780521608804944   T   T   T
  0.6772465519678121  0.7763535009781606  0.1880604331920566   F   F   F
  0.4299567428800160  0.7772342298876111  0.1894895548453093   F   F   F
  0.9390031723578005  0.5362449500775668  0.1896412431817609   F   F   F
  0.4367080708418492  0.7651811316134147  0.4655154011585830   T   T   T
  0.1825483016635872  0.7744937980625508  0.1889622867547729   F   F   F
  0.0164490977784421  0.9429671924178555  0.2800481159301923   T   T   T
  0.3550021685237939  0.6113288935379965  0.3745341001370807   T   T   T
  0.6803592905154900  0.0284397167488066  0.1889214387094214   F   F   F
  0.3420492796970933  0.8760228291847483  0.0918908782290799   F   F   F
  0.1993973392636625  0.0371425994172148  0.4641710753095761   T   T   T
  0.0124020684964315  0.6922003025722393  0.2789056158851583   T   T   T
  0.1051513392244061  0.1100357485509988  0.0907249991319432   F   F   F
  0.2676973991376863  0.9545295139137179  0.2816355782301591   T   T   T
  0.2753709025781346  0.1976646595123782  0.2785842987645358   T   T   T
  0.4346734463695583  0.2899167700202057  0.1862323251205780   F   F   F
  0.5114071501232005  0.2044460228222423  0.2814833603603649   T   T   T
  0.0104957703155064  0.4510543444372779  0.2846855099181297   T   T   T
  0.2070572126952774  0.2846062016365578  0.4646819956800083   T   T   T
  0.8576069588231741  0.8615132240636261  0.3694362905813277   T   T   T
  0.1037418802605046  0.3712269660868892  0.3749964815611772   T   T   T
  0.7722781820753126  0.9396612071238154  0.2797845128811499   T   T   T
  0.4367689171760185  0.2676290260684893  0.4595443840537178   T   T   T
  0.1983195434103227  0.5292824652477947  0.4600891689280798   T   T   T
  0.6928487845136359  0.2775835830037464  0.4595289470303796   T   T   T
  0.1844259405725523  0.5414365195352673  0.1885538352630505   F   F   F
  0.5348917305871277  0.4509720186965844  0.2733018540421777   T   T   T
  0.0996212761694587  0.5997648949826101  0.3740492566825036   T   T   T
  0.8579648564944971  0.5988744552257173  0.3696021302885584   T   T   T
  0.7773337630904498  0.7076886880405898  0.2796314786016014   T   T   T
  0.6824343226913498  0.5302399267758631  0.1879274341157711   F   F   F
  0.7789057521514933  0.4570387108516332  0.2819448382344842   T   T   T
  0.6071633250222783  0.3473569891339328  0.3697255427905626   T   T   T
  0.4224865046101776  0.5186546558981243  0.4652109300565927   T   T   T
  0.7612864850654067  0.2057495395131269  0.2846654694518860   T   T   T
  0.8593944716946069  0.6193178635479555  0.0894535518284840   F   F   F
  0.1017258116656947  0.6194849280809365  0.0975768623625370   F   F   F
  0.4341347149420756  0.5358931968872511  0.1872633692304149   F   F   F
  0.8631489401785694  0.3675524347694378  0.3754945241971338   T   T   T
  0.6101512791372913  0.1169739634586003  0.3766986676810219   T   T   T
  0.5959572687040975  0.1133292492947078  0.0943273203436092   F   F   F
  0.0953923379707931  0.8570699377848143  0.0914458566527543   F   F   F
  0.3426885222532832  0.1140918391911967  0.0917744789208186   F   F   F
  0.8556099019340648  0.1108182674526768  0.3780444466876905   T   T   T
  0.8582965770205035  0.8718797934663840  0.0913650326340658   F   F   F
  0.3433567970796574  0.3587354516028327  0.0907448241962214   F   F   F
 
  0.00000000E+00  0.00000000E+00  0.00000000E+00
  0.00000000E+00  0.00000000E+00  0.00000000E+00
  0.00000000E+00  0.00000000E+00  0.00000000E+00
  0.00000000E+00  0.00000000E+00  0.00000000E+00
  0.00000000E+00  0.00000000E+00  0.00000000E+00
  0.00000000E+00  0.00000000E+00  0.00000000E+00
  0.00000000E+00  0.00000000E+00  0.00000000E+00
  0.00000000E+00  0.00000000E+00  0.00000000E+00
  0.00000000E+00  0.00000000E+00  0.00000000E+00
  0.00000000E+00  0.00000000E+00  0.00000000E+00
  0.00000000E+00  0.00000000E+00  0.00000000E+00
  0.00000000E+00  0.00000000E+00  0.00000000E+00
  0.00000000E+00  0.00000000E+00  0.00000000E+00
  0.00000000E+00  0.00000000E+00  0.00000000E+00
  0.00000000E+00  0.00000000E+00  0.00000000E+00
  0.00000000E+00  0.00000000E+00  0.00000000E+00
  0.00000000E+00  0.00000000E+00  0.00000000E+00
  0.00000000E+00  0.00000000E+00  0.00000000E+00
  0.00000000E+00  0.00000000E+00  0.00000000E+00
  0.00000000E+00  0.00000000E+00  0.00000000E+00
  0.00000000E+00  0.00000000E+00  0.00000000E+00
  0.00000000E+00  0.00000000E+00  0.00000000E+00
  0.00000000E+00  0.00000000E+00  0.00000000E+00
  0.00000000E+00  0.00000000E+00  0.00000000E+00
  0.00000000E+00  0.00000000E+00  0.00000000E+00
  0.00000000E+00  0.00000000E+00  0.00000000E+00
  0.00000000E+00  0.00000000E+00  0.00000000E+00
  0.00000000E+00  0.00000000E+00  0.00000000E+00
  0.00000000E+00  0.00000000E+00  0.00000000E+00
  0.00000000E+00  0.00000000E+00  0.00000000E+00
  0.00000000E+00  0.00000000E+00  0.00000000E+00
  0.00000000E+00  0.00000000E+00  0.00000000E+00
  0.00000000E+00  0.00000000E+00  0.00000000E+00
  0.00000000E+00  0.00000000E+00  0.00000000E+00
  0.00000000E+00  0.00000000E+00  0.00000000E+00
  0.00000000E+00  0.00000000E+00  0.00000000E+00
  0.00000000E+00  0.00000000E+00  0.00000000E+00
  0.00000000E+00  0.00000000E+00  0.00000000E+00
  0.00000000E+00  0.00000000E+00  0.00000000E+00
  0.00000000E+00  0.00000000E+00  0.00000000E+00
  0.00000000E+00  0.00000000E+00  0.00000000E+00
  0.00000000E+00  0.00000000E+00  0.00000000E+00
  0.00000000E+00  0.00000000E+00  0.00000000E+00
  0.00000000E+00  0.00000000E+00  0.00000000E+00
  0.00000000E+00  0.00000000E+00  0.00000000E+00
  0.00000000E+00  0.00000000E+00  0.00000000E+00
  0.00000000E+00  0.00000000E+00  0.00000000E+00
  0.00000000E+00  0.00000000E+00  0.00000000E+00
  0.00000000E+00  0.00000000E+00  0.00000000E+00
  0.00000000E+00  0.00000000E+00  0.00000000E+00
  0.00000000E+00  0.00000000E+00  0.00000000E+00
  0.00000000E+00  0.00000000E+00  0.00000000E+00
  0.00000000E+00  0.00000000E+00  0.00000000E+00
  0.00000000E+00  0.00000000E+00  0.00000000E+00
  0.00000000E+00  0.00000000E+00  0.00000000E+00
  0.00000000E+00  0.00000000E+00  0.00000000E+00
  0.00000000E+00  0.00000000E+00  0.00000000E+00
  0.00000000E+00  0.00000000E+00  0.00000000E+00
  0.00000000E+00  0.00000000E+00  0.00000000E+00
  0.00000000E+00  0.00000000E+00  0.00000000E+00
  0.00000000E+00  0.00000000E+00  0.00000000E+00
  0.00000000E+00  0.00000000E+00  0.00000000E+00
  0.00000000E+00  0.00000000E+00  0.00000000E+00
  0.00000000E+00  0.00000000E+00  0.00000000E+00
  0.00000000E+00  0.00000000E+00  0.00000000E+00
  0.00000000E+00  0.00000000E+00  0.00000000E+00
  0.00000000E+00  0.00000000E+00  0.00000000E+00
  0.00000000E+00  0.00000000E+00  0.00000000E+00
  0.00000000E+00  0.00000000E+00  0.00000000E+00
  0.00000000E+00  0.00000000E+00  0.00000000E+00
  0.00000000E+00  0.00000000E+00  0.00000000E+00
  0.00000000E+00  0.00000000E+00  0.00000000E+00
  0.00000000E+00  0.00000000E+00  0.00000000E+00
  0.00000000E+00  0.00000000E+00  0.00000000E+00
  0.00000000E+00  0.00000000E+00  0.00000000E+00
  0.00000000E+00  0.00000000E+00  0.00000000E+00
  0.00000000E+00  0.00000000E+00  0.00000000E+00
  0.00000000E+00  0.00000000E+00  0.00000000E+00
  0.00000000E+00  0.00000000E+00  0.00000000E+00
  0.00000000E+00  0.00000000E+00  0.00000000E+00
