Pt Pd Ni Co Fe  O 
 1.0000000000000000
    26.8390302326635251  -15.5088069955373857    0.2610371749561117
     0.0000000000000000   31.1794617591341989   -0.0663812827791770
     0.0000000000000000    0.0000000000000000   22.9220064906261953
 Pt  Pd  Ni  Co  Fe  O  
 171 126 144 135 144   1
Selective dynamics
Cartesian
  1.6098050333551581 -0.5360059154176707  4.2709758942480658   F   F   F
  5.3158277913154457  3.3101901548393347  8.6677917543564735   F   F   F
  7.7197102658210124  4.6493209121965995  8.6065119194224486   F   F   F
  3.8478223010228647  5.9822608513028586 10.8219495836262318   F   F   F
  3.9972262359846842  5.8706731283361284  4.2402561952980466   F   F   F
  3.9307549044417920  0.7720590857660046  4.2530678728217959   F   F   F
  6.2058100338305682  1.9497075227244061 10.9113112074094563   F   F   F
  4.7607966461039668 -0.6674883146071973  6.4719490863818381   F   F   F
  6.2488419456369462  4.5904778528358090 10.9099513209809658   F   F   F
  2.2975999147842243  0.7971191164811604  6.5113980780031087   F   F   F
  7.5474931551614208 -0.5960515092053362  2.2686541942638967   F   F   F
  7.5763898443785864  4.6252963192581324  2.1500499795470303   F   F   F
  3.1417768790355947 -0.5982147598209993  8.7023404026683213   F   F   F
  0.8936502433135873  5.7888231115432394  2.0791074335903992   F   F   F
  6.9225910679109086  5.9980274824034066  6.4231744796156738   F   F   F
  5.2959669089432779  3.3026472003429586  2.2893615533478702   F   F   F
  7.6315887832237710 -3.1855640414157338  2.2304130501582335   F   F   F
  6.1961479829468145 -3.1931659639646290 10.8016085785692155   F   F   F
  0.8902506328174464  3.3149304336756900  8.5222202282333850   F   F   F
 10.5561484442430054 -5.7056082472634682  4.3579882859001025   F   F   F
 14.2621712022032927 -1.8594121770064680  8.7548041460085120   F   F   F
 16.6660536767088523 -0.5202814196491961  8.6935243110744853   F   F   F
 12.7941657119107077  0.8126585194570639 10.9089619752782720   F   F   F
 12.9435696468725290  0.7010707964903355  4.3272685869500842   F   F   F
 12.8770983153296363 -4.3975432460797919  4.3400802644738334   F   F   F
 15.1521534447184081 -3.2198948091213886 10.9983235990614929   F   F   F
 13.7071400569918129 -5.8370906464529924  6.5589614780338783   F   F   F
 15.1951853565247923 -0.5791244790099856 10.9969637126330024   F   F   F
 11.2439433256720687 -4.3724832153646354  6.5984104696551453   F   F   F
 16.4938365660492678 -5.7656538410511367  2.3556665859159365   F   F   F
 16.5227332552664343 -0.5443060125876613  2.2370623711990678   F   F   F
 12.0881202899234381 -5.7678170916667950  8.7893527943203580   F   F   F
  9.8399936542014323  0.6192207796974429  2.1661198252424363   F   F   F
 15.8689344787987476  0.8284251505576119  6.5101868712677113   F   F   F
 14.2423103198311196 -1.8669551315028396  2.3763739449999046   F   F   F
 16.5779321941116109 -8.3551663732615289  2.3174254418102707   F   F   F
 15.1424913938346588 -8.3627682958104259 10.8886209702212522   F   F   F
  9.8365940437052899 -1.8546718981701060  8.6092326198854252   F   F   F
 19.5024918551308488 -10.8752105791092681  4.4450006775521382   F   F   F
 23.2085146130911362 -7.0290145088522591  8.8418165376605504   F   F   F
 25.6123970875966975 -5.6898837514949907  8.7805367027265255   F   F   F
 21.7405091227985530 -4.3569438123887316 10.9959743669303087   F   F   F
 21.8899130577603742 -4.4685315353554653  4.4142809786021191   F   F   F
 21.8234417262174780 -9.5671455779255918  4.4270926561258701   F   F   F
 24.0984968556062569 -8.3894971409671886 11.0853359907135314   F   F   F
 22.6534834678796599 -11.0066929782987941  6.6459738696859123   F   F   F
 24.1415287674126375 -5.7487268108557821 11.0839761042850427   F   F   F
 20.1902867365599157 -9.5420855472104336  6.6854228613071829   F   F   F
 25.4401799769371095 -10.9352561728969260  2.4426789775679714   F   F   F
 25.4690766661542760 -5.7139083444334613  2.3240747628511049   F   F   F
 21.0344637008112834 -10.9374194235125923  8.8763651859723947   F   F   F
 18.7863370650892776 -4.5503815521483553  2.2531322168944738   F   F   F
 24.8152778896865946 -4.3411771812881845  6.5971992629197453   F   F   F
 23.1886537307189613 -7.0365574633486334  2.4633863366519444   F   F   F
 25.5242756049994561 -13.5247687051073289  2.4044378334623078   F   F   F
 24.0888348047225023 -13.5323706276562206 10.9756333618732906   F   F   F
 18.7829374545931316 -7.0242742300159051  8.6962450115374601   F   F   F
  1.6098050333551581  9.8571480042937267  4.2488487999883402   F   F   F
  5.3158277913154457 13.7033440745507313  8.6456646600967488   F   F   F
  7.7197102658210124 15.0424748319079988  8.5843848251627222   F   F   F
  3.8478223010228647 16.3754147710142561 10.7998224893665089   F   F   F
  3.9972262359846842 16.2638270480475384  4.2181291010383211   F   F   F
  3.9307549044417920 11.1652130054774013  4.2309407785620703   F   F   F
  6.2058100338305682 12.3428614424358027 10.8891841131497298   F   F   F
  4.7607966461039668  9.7256656051042008  6.4498219921221125   F   F   F
  6.2488419456369462 14.9836317725472092 10.8878242267212411   F   F   F
  2.2975999147842243 11.1902730361925560  6.4892709837433848   F   F   F
  7.5474931551614208  9.7971024105060636  2.2465271000041733   F   F   F
  7.5763898443785864 15.0184502389695353  2.1279228852873047   F   F   F
  3.1417768790355947  9.7949391598904008  8.6802133084085948   F   F   F
  0.8936502433135873 16.1819770312546467  2.0569803393306736   F   F   F
  6.9225910679109086 16.3911814021148103  6.4010473853559482   F   F   F
  5.2959669089432779 13.6958011200543552  2.2672344590881446   F   F   F
  7.6315887832237710  7.2075898782956616  2.2082859558985080   F   F   F
  6.1961479829468145  7.1999879557467708 10.7794814843094944   F   F   F
  0.8902506328174464 13.7080843533870880  8.5000931339736603   F   F   F
 10.5561484442430054  4.6875456724479267  4.3358611916403769   F   F   F
 14.2621712022032927  8.5337417427049314  8.7326770517487873   F   F   F
 16.6660536767088523  9.8728725000621989  8.6713972168147606   F   F   F
 12.7941657119107077 11.2058124391684615 10.8868348810185456   F   F   F
 12.9435696468725290 11.0942247162017367  4.3051414926903586   F   F   F
 12.8770983153296363  5.9956106736316039  4.3179531702141070   F   F   F
 15.1521534447184081  7.1732591105900081 10.9761965048017682   F   F   F
 13.7071400569918129  4.5560632732584025  6.5368343837741500   F   F   F
 15.1951853565247923  9.8140294407014110 10.9748366183732777   F   F   F
 11.2439433256720687  6.0206707043467640  6.5762833753954197   F   F   F
 16.4938365660492678  4.6275000786602654  2.3335394916562082   F   F   F
 16.5227332552664343  9.8488479071237336  2.2149352769393418   F   F   F
 12.0881202899234381  4.6253368280446043  8.7672257000606333   F   F   F
  9.8399936542014323 11.0123746994088414  2.1439927309827107   F   F   F
 15.8689344787987476 11.2215790702690086  6.4880597770079858   F   F   F
 14.2423103198311196  8.5261987882085588  2.3542468507401817   F   F   F
 16.5779321941116109  2.0379875464498660  2.2952983475505451   F   F   F
 15.1424913938346588  2.0303856239009743 10.8664938759615275   F   F   F
  9.8365940437052899  8.5384820215412880  8.5871055256256970   F   F   F
 19.5024918551308488 -0.4820566593978697  4.4228735832924144   F   F   F
 23.2085146130911362  3.3641394108591403  8.8196894434008222   F   F   F
 25.6123970875966975  4.7032701682164042  8.7584096084667973   F   F   F
 21.7405091227985530  6.0362101073226668 10.9738472726705822   F   F   F
 21.8899130577603742  5.9246223843559367  4.3921538843423953   F   F   F
 21.8234417262174780  0.8260083417858102  4.4049655618661445   F   F   F
 24.0984968556062569  2.0036567787442081 11.0632088964538049   F   F   F
 22.6534834678796599 -0.6135390585873957  6.6238467754261867   F   F   F
 24.1415287674126375  4.6444271088556146 11.0618490100253144   F   F   F
 20.1902867365599157  0.8510683725009685  6.6632957670474573   F   F   F
 25.4401799769371095 -0.5421022531855293  2.4205518833082480   F   F   F
 25.4690766661542760  4.6792455752779372  2.3019476685913793   F   F   F
 21.0344637008112834 -0.5442655038011921  8.8542380917126700   F   F   F
 18.7863370650892776  5.8427723675630432  2.2310051226347478   F   F   F
 24.8152778896865946  6.0519767384232122  6.5750721686600198   F   F   F
 23.1886537307189613  3.3565964563627624  2.4412592423922161   F   F   F
 25.5242756049994561 -3.1316147853959304  2.3823107392025822   F   F   F
 24.0888348047225023 -3.1392167079448203 10.9535062676135642   F   F   F
 18.7829374545931316  3.3688796896954916  8.6741179172777336   F   F   F
  1.6098050333551581 20.2503019240051252  4.2267217057286137   F   F   F
  5.3158277913154457 24.0964979942621262  8.6235375658370224   F   F   F
  7.7197102658210124 25.4356287516193973  8.5622577309029975   F   F   F
  3.8478223010228647 26.7685686907256581 10.7776953951067824   F   F   F
  3.9972262359846842 26.6569809677589227  4.1960020067785955   F   F   F
  3.9307549044417920 21.5583669251887997  4.2088136843023447   F   F   F
  6.2058100338305682 22.7360153621471959 10.8670570188900069   F   F   F
  4.7607966461039668 20.1188195248155992  6.4276948978623869   F   F   F
  6.2488419456369462 25.3767856922586077 10.8656971324615146   F   F   F
  2.2975999147842243 21.5834269559039562  6.4671438894836566   F   F   F
  7.5474931551614208 20.1902563302174585  2.2244000057444455   F   F   F
  7.5763898443785864 25.4116041586809374  2.1057957910275791   F   F   F
  3.1417768790355947 20.1880930796017992  8.6580862141488701   F   F   F
  0.8936502433135873 26.5751309509660452  2.0348532450709480   F   F   F
  6.9225910679109086 26.7843353218262017  6.3789202910962226   F   F   F
  5.2959669089432779 24.0889550397657537  2.2451073648284190   F   F   F
  7.6315887832237710 17.6007437980070627  2.1861588616387819   F   F   F
  6.1961479829468145 17.5931418754581657 10.7573543900497643   F   F   F
  0.8902506328174464 24.1012382730984918  8.4779660397139338   F   F   F
 10.5561484442430054 15.0806995921593234  4.3137340973806495   F   F   F
 14.2621712022032927 18.9268956624163209  8.7105499574890626   F   F   F
 16.6660536767088523 20.2660264197736026  8.6492701225550341   F   F   F
 12.7941657119107077 21.5989663588798635 10.8647077867588209   F   F   F
 12.9435696468725290 21.4873786359131280  4.2830143984306304   F   F   F
 12.8770983153296363 16.3887645933430086  4.2958260759543814   F   F   F
 15.1521534447184081 17.5664130303014119 10.9540694105420418   F   F   F
 13.7071400569918129 14.9492171929698046  6.5147072895144236   F   F   F
 15.1951853565247923 20.2071833604128130 10.9527095241135513   F   F   F
 11.2439433256720687 16.4138246240581580  6.5541562811356942   F   F   F
 16.4938365660492678 15.0206539983716603  2.3114123973964826   F   F   F
 16.5227332552664343 20.2420018268351392  2.1928081826796162   F   F   F
 12.0881202899234381 15.0184907477560046  8.7450986058009068   F   F   F
  9.8399936542014323 21.4055286191202399  2.1218656367229851   F   F   F
 15.8689344787987476 21.6147329899804035  6.4659326827482575   F   F   F
 14.2423103198311196 18.9193527079199555  2.3321197564804561   F   F   F
 16.5779321941116109 12.4311414661612663  2.2731712532908195   F   F   F
 15.1424913938346588 12.4235395436123746 10.8443667817018010   F   F   F
  9.8365940437052899 18.9316359412526936  8.5649784313659705   F   F   F
 19.5024918551308488  9.9110972603135270  4.4007464890326888   F   F   F
 23.2085146130911362 13.7572933305705316  8.7975623491410992   F   F   F
 25.6123970875966975 15.0964240879278098  8.7362825142070726   F   F   F
 21.7405091227985530 16.4293640270340653 10.9517201784108575   F   F   F
 21.8899130577603742 16.3177763040673298  4.3700267900826697   F   F   F
 21.8234417262174780 11.2191622614972104  4.3828384676064189   F   F   F
 24.0984968556062569 12.3968106984556048 11.0410818021940802   F   F   F
 22.6534834678796599  9.7796148611240028  6.6017196811664611   F   F   F
 24.1415287674126375 15.0375810285670131 11.0397219157655897   F   F   F
 20.1902867365599157 11.2442222922123616  6.6411686727877317   F   F   F
 25.4401799769371095  9.8510516665258656  2.3984247890485202   F   F   F
 25.4690766661542760 15.0723994949893356  2.2798205743316533   F   F   F
 21.0344637008112834  9.8488884159102081  8.8321109974529453   F   F   F
 18.7863370650892776 16.2359262872744452  2.2088780283750222   F   F   F
 24.8152778896865946 16.4451306581346088  6.5529450744002968   F   F   F
 23.1886537307189613 13.7497503760741608  2.4191321481324932   F   F   F
 25.5242756049994561  7.2615391343154734  2.3601836449428566   F   F   F
 24.0888348047225023  7.2539372117665799 10.9313791733538395   F   F   F
 18.7829374545931316 13.7620336094068918  8.6519908230180089   F   F   F
  1.6357494292467312  1.9077106606060918 10.8624886513672188   F   F   F
  7.6318571735260976  1.9178391027885864  8.6496314116441955   F   F   F
  2.3740016875132022  5.8212961530536562  6.5219804708826725   F   F   F
  1.6403120643862867  7.1190076903184751  4.2801517075769784   F   F   F
  8.2893239507922409  3.3035140153018059  4.3711238492796101   F   F   F
  0.8652008712669640  8.4817074443625842  2.0181197492936760   F   F   F
  2.4106816954978405  8.4670880108302207  6.4902988805662352   F   F   F
  1.5658784872077007  4.6340919538280270 10.8916196684084081   F   F   F
  3.1969758178807792  7.1596615881543935  2.0744400184850922   F   F   F
  4.6834107755997874  2.0027472887607622  6.4846319480293788   F   F   F
  0.1057457791166970  7.1386487467784514  6.4584163560148582   F   F   F
  4.6409156443980688  4.6064679765526133  6.4752892784839435   F   F   F
  6.1474798747915829 -0.6269312085466670 10.8548703502152666   F   F   F
  3.8816394791160178  3.2672552854113328 10.9921387188358288   F   F   F
 10.5820928401345746 -3.2618916712397046 10.9495010430192590   F   F   F
 16.5782005844139420 -3.2517632290572092  8.7366438032962286   F   F   F
 11.3203450984010470  0.6516938212078571  6.6089928625347127   F   F   F
 10.5866554752741298  1.9494053584726760  4.3671640992290186   F   F   F
 17.2356673616800791 -1.8660883165439923  4.4581362409316467   F   F   F
  9.8115442821548076  3.3121051125167833  2.1051321409457131   F   F   F
 11.3570251063856844  3.2974856789844234  6.5773112722182727   F   F   F
 10.5122218980955431 -0.5355103780177695 10.9786320600604448   F   F   F
 12.1433192287686236  1.9900592563085970  2.1614524101371293   F   F   F
 13.6297541864876273 -3.1668550430850342  6.5716443396814164   F   F   F
  9.0520891900045406  1.9690464149326559  6.5454287476668958   F   F   F
 13.5872590552859087 -0.5631343552931849  6.5623016701359802   F   F   F
 15.0938232856794290 -5.7965335403924652 10.9418827418673033   F   F   F
 12.8279828900038648 -1.9023470464344614 11.0791511104878708   F   F   F
 19.5284362510224234 -8.4314940030855006 11.0365134346712992   F   F   F
 25.5245439953017836 -8.4213655609030091  8.8236561949482724   F   F   F
 20.2666885092888940 -4.5179085106379384  6.6960052541867530   F   F   F
 19.5329988861619768 -3.2201969733731222  4.4541764908810535   F   F   F
 26.1820107725679279 -7.0356906483897852  4.5451486325836843   F   F   F
 18.7578876930426475 -1.8574972193290122  2.1921445325977507   F   F   F
 20.3033685172735296 -1.8721166528613740  6.6643236638703103   F   F   F
 19.4585653089833848 -5.7051127098635641 11.0656444517124832   F   F   F
 21.0896626396564706 -3.1795430755372021  2.2484648017891669   F   F   F
 22.5760975973754761 -8.3364573749308306  6.6586567313334530   F   F   F
 17.9984326008923858 -3.2005559169131432  6.6324411393189315   F   F   F
 22.5336024661737575 -5.7327366871389849  6.6493140617880195   F   F   F
 24.0401666965672725 -10.9661358722382616 11.0288951335193417   F   F   F
 21.7743263008917012 -7.0719493782802587 11.1661635021399057   F   F   F
  1.6357494292467312 12.3008645803174890 10.8403615571074958   F   F   F
  7.6318571735260976 12.3109930224999857  8.6275043173844672   F   F   F
  2.3740016875132022 16.2144500727650538  6.4998533766229496   F   F   F
  1.6403120643862867 17.5121616100298638  4.2580246133172555   F   F   F
  8.2893239507922409 13.6966679350132026  4.3489967550198836   F   F   F
  0.8652008712669640 18.8748613640739720  1.9959926550339504   F   F   F
  2.4106816954978405 18.8602419305416191  6.4681717863065096   F   F   F
  1.5658784872077007 15.0272458735394263 10.8694925741486834   F   F   F
  3.1969758178807792 17.5528155078657946  2.0523129242253666   F   F   F
  4.6834107755997874 12.3959012084721607  6.4625048537696541   F   F   F
  0.1057457791166970 17.5318026664898525  6.4362892617551326   F   F   F
  4.6409156443980688 14.9996218962640153  6.4531621842242179   F   F   F
  6.1474798747915829  9.7662227111647315 10.8327432559555401   F   F   F
  3.8816394791160178 13.6604092051227326 10.9700116245761023   F   F   F
 10.5820928401345746  7.1312622484716934 10.9273739487595360   F   F   F
 16.5782005844139420  7.1413906906541893  8.7145167090365092   F   F   F
 11.3203450984010470 11.0448477409192538  6.5868657682749872   F   F   F
 10.5866554752741298 12.3425592781840727  4.3450370049692930   F   F   F
 17.2356673616800791  8.5270656031674079  4.4360091466719211   F   F   F
  9.8115442821548076 13.7052590322281809  2.0830050466859875   F   F   F
 11.3570251063856844 13.6906395986958209  6.5551841779585471   F   F   F
 10.5122218980955431  9.8576435416936299 10.9565049658007201   F   F   F
 12.1433192287686236 12.3832131760199964  2.1393253158774037   F   F   F
 13.6297541864876273  7.2262988766263643  6.5495172454216908   F   F   F
  9.0520891900045406 12.3622003346440543  6.5233016534071702   F   F   F
 13.5872590552859087  9.8300195644182136  6.5401745758762546   F   F   F
 15.0938232856794290  4.5966203793189297 10.9197556476075786   F   F   F
 12.8279828900038648  8.4908068732769344 11.0570240162281461   F   F   F
 19.5284362510224234  1.9616599166258943 11.0143863404115727   F   F   F
 25.5245439953017836  1.9717883588083893  8.8015291006885441   F   F   F
 20.2666885092888940  5.8752454090734556  6.6738781599270247   F   F   F
 19.5329988861619768  7.1729569463382745  4.4320493966213279   F   F   F
 26.1820107725679279  3.3574632713216079  4.5230215383239587   F   F   F
 18.7578876930426475  8.5356567003823844  2.1700174383380246   F   F   F
 20.3033685172735296  8.5210372668500245  6.6421965696105874   F   F   F
 19.4585653089833848  4.6880412098478317 11.0435173574527568   F   F   F
 21.0896626396564706  7.2136108441742000  2.2263377075294413   F   F   F
 22.5760975973754761  2.0566965447805643  6.6365296370737275   F   F   F
 17.9984326008923858  7.1925980027982561  6.6103140450592059   F   F   F
 22.5336024661737575  4.6604172325724136  6.6271869675282922   F   F   F
 24.0401666965672725 -0.5729819525268667 11.0067680392596134   F   F   F
 21.7743263008917012  3.3212045414311344 11.1440364078801828   F   F   F
  1.6357494292467312 22.6940185000288892 10.8182344628477676   F   F   F
  7.6318571735260976 22.7041469422113842  8.6053772231247443   F   F   F
  2.3740016875132022 26.6076039924764522  6.4777262823632240   F   F   F
  1.6403120643862867 27.9053155297412623  4.2358975190575299   F   F   F
  8.2893239507922409 24.0898218547246046  4.3268696607601580   F   F   F
  0.8652008712669640 29.2680152837853704  1.9738655607742246   F   F   F
  2.4106816954978405 29.2533958502530140  6.4460446920467840   F   F   F
  1.5658784872077007 25.4203997932508230 10.8473654798889569   F   F   F
  3.1969758178807792 27.9459694275771859  2.0301858299656410   F   F   F
  4.6834107755997874 22.7890551281835592  6.4403777595099276   F   F   F
  0.1057457791166970 27.9249565862012439  6.4141621674954070   F   F   F
  4.6409156443980688 25.3927758159754084  6.4310350899644924   F   F   F
  6.1474798747915829 20.1593766308761246 10.8106161616958154   F   F   F
  3.8816394791160178 24.0535631248341311 10.9478845303163830   F   F   F
 10.5820928401345746 17.5244161681830910 10.9052468544998113   F   F   F
 16.5782005844139420 17.5345446103655860  8.6923896147767810   F   F   F
 11.3203450984010470 21.4380016606306540  6.5647386740152616   F   F   F
 10.5866554752741298 22.7357131978954712  4.3229099107095648   F   F   F
 17.2356673616800791 18.9202195228788064  4.4138820524121956   F   F   F
  9.8115442821548076 24.0984129519395793  2.0608779524262619   F   F   F
 11.3570251063856844 24.0837935184072158  6.5330570836988189   F   F   F
 10.5122218980955431 20.2507974614050248 10.9343778715409936   F   F   F
 12.1433192287686236 22.7763670957313877  2.1171982216176781   F   F   F
 13.6297541864876273 17.6194527963377645  6.5273901511619643   F   F   F
  9.0520891900045406 22.7553542543554528  6.5011745591474428   F   F   F
 13.5872590552859087 20.2231734841296102  6.5180474816165290   F   F   F
 15.0938232856794290 14.9897742990303318 10.8976285533478521   F   F   F
 12.8279828900038648 18.8839607929883329 11.0348969219684143   F   F   F
 19.5284362510224234 12.3548138363372910 10.9922592461518480   F   F   F
 25.5245439953017836 12.3649422785197878  8.7794020064288212   F   F   F
 20.2666885092888940 16.2683993287848594  6.6517510656672991   F   F   F
 19.5329988861619768 17.5661108660496730  4.4099223023616050   F   F   F
 26.1820107725679279 13.7506171910330099  4.5008944440642331   F   F   F
 18.7578876930426475 18.9288106200937847  2.1478903440782990   F   F   F
 20.3033685172735296 18.9141911865614176  6.6200694753508618   F   F   F
 19.4585653089833848 15.0811951295592301 11.0213902631930321   F   F   F
 21.0896626396564706 17.6067647638855931  2.2042106132697152   F   F   F
 22.5760975973754761 12.4498504644919645  6.6144025428140019   F   F   F
 17.9984326008923858 17.5857519225096546  6.5881869507994812   F   F   F
 22.5336024661737575 15.0535711522838085  6.6050598732685666   F   F   F
 24.0401666965672725  9.8201719671845353 10.9846409449998905   F   F   F
 21.7743263008917012 13.7143584611425347 11.1219093136204545   F   F   F
  3.1758624474310775 -0.5360128918180145  2.0954584075196676   F   F   F
  6.1587522674893016 -3.1223974081772763  4.3671622037624047   F   F   F
  6.1702930504893443  4.6203811619690400  4.3535264652336334   F   F   F
  5.3764839996412679 -1.9275686696389105  2.2257673730515566   F   F   F
  3.8928224083796259  0.6657266802837878 10.7470056474836451   F   F   F
  2.3354429474122802  3.3013077588033002  6.4188260853657688   F   F   F
  6.1893487619545331  1.9604667694853788  4.3554545930384174   F   F   F
  0.1471673491091094  9.8147509447838175  6.4108943336277253   F   F   F
  5.4052017619902175  0.6191004580942843  8.6373759745573881   F   F   F
  3.0067765569653053  2.0586478214645387  2.2067753924131739   F   F   F
  0.9539485979029724  3.2262610270135896  2.1614057093188270   F   F   F
  7.5907039938360095 -3.1340853062543674  8.5788934606893932   F   F   F
  7.5668172569289389  1.9928374658520749  2.2197547935267243   F   F   F
  0.1141553419229280  4.5465175838135599  6.3647541784036177   F   F   F
  6.1564262182024647 -0.6268003023794591  4.3689351212012699   F   F   F
  8.3492644516451868 -1.9028596423091280 10.7252366916345210   F   F   F
 12.1222058583189209 -5.7056152236638145  2.1824707991717047   F   F   F
 15.1050956783771397 -8.2919997400230727  4.4541745954144414   F   F   F
 15.1166364613771922 -0.5492211698767591  4.4405388568856683   F   F   F
 14.3228274105291131 -7.0971710014847051  2.3127797647035941   F   F   F
 12.8391658192674676 -4.5038756515620086 10.8340180391356817   F   F   F
 11.2817863583001259 -1.8682945730424976  6.5058384770178064   F   F   F
 15.1356921728423810 -3.2091355623604194  4.4424669846904550   F   F   F
  9.0935107599969527  4.6451486129380255  6.4979067252797620   F   F   F
 14.3515451728780636 -4.5505018737515170  8.7243883662094230   F   F   F
 11.9531199678531479 -3.1109545103812573  2.2937877840652088   F   F   F
  9.9002920087908119 -1.9433413048322050  2.2484181009708641   F   F   F
 16.5370474047238538 -8.3036876381001647  8.6659058523414281   F   F   F
 16.5131606678167842 -3.1767648659937224  2.3067671851787614   F   F   F
  9.0604987528107692 -0.6230847480322348  6.4517665700556552   F   F   F
 15.1027696290903126 -5.7964026342252577  4.4559475128533075   F   F   F
 17.2956078625330356 -7.0724619741549271 10.8122490832865576   F   F   F
 21.0685492692067662 -10.8752175555096073  2.2694831908237418   F   F   F
 24.0514390892649814 -13.4616020718688691  4.5411869870664789   F   F   F
 24.0629798722650357 -5.7188235017225555  4.5275512485377059   F   F   F
 23.2691708214169566 -12.2667733333305033  2.3997921563556313   F   F   F
 21.7855092301553128 -9.6734779834078015 10.9210304307877202   F   F   F
 20.2281297691879658 -7.0378969048882896  6.5928508686698430   F   F   F
 24.0820355837302245 -8.3787378942062194  4.5294793763424916   F   F   F
 18.0398541708848015 -0.5244537189077736  6.5849191169318022   F   F   F
 23.2978885837659071 -9.7201042055973126  8.8114007578614615   F   F   F
 20.8994633787409896 -8.2805568422270532  2.3808001757172486   F   F   F
 18.8466354196786554 -7.1129436366780014  2.3354304926229013   F   F   F
 25.4833908156116991 -13.4732899699459576  8.7529182439934683   F   F   F
 25.4595040787046258 -8.3463671978395162  2.3937795768307986   F   F   F
 18.0068421636986180 -5.7926870798780330  6.5387789617076928   F   F   F
 24.0491130399781561 -10.9660049660710541  4.5429599045053450   F   F   F
 26.2419512734208773 -12.2420643060007244 10.8992614749385979   F   F   F
  3.1758624474310775  9.8571410278933840  2.0733313132599420   F   F   F
  6.1587522674893016  7.2707565115341231  4.3450351095026782   F   F   F
  6.1702930504893443 15.0135350816804376  4.3313993709739078   F   F   F
  5.3764839996412679  8.4655852500724844  2.2036402787918310   F   F   F
  3.8928224083796259 11.0588805999951862 10.7248785532239186   F   F   F
  2.3354429474122802 13.6944616785146991  6.3966989911060432   F   F   F
  6.1893487619545331 12.3536206891967772  4.3333274987786918   F   F   F
  0.1471673491091094 20.2079048644952195  6.3887672393679997   F   F   F
  5.4052017619902175 11.0122543778056823  8.6152488802976599   F   F   F
  3.0067765569653053 12.4518017411759381  2.1846482981534483   F   F   F
  0.9539485979029724 13.6194149467249925  2.1392786150591014   F   F   F
  7.5907039938360095  7.2590686134570319  8.5567663664296649   F   F   F
  7.5668172569289389 12.3859913855634787  2.1976276992669987   F   F   F
  0.1141553419229280 14.9396715035249592  6.3426270841438921   F   F   F
  6.1564262182024647  9.7663536173319407  4.3468080269415443   F   F   F
  8.3492644516451868  8.4902942774022705 10.7031095973747927   F   F   F
 12.1222058583189209  4.6875386960475840  2.1603437049119791   F   F   F
 15.1050956783771397  2.1011541796883257  4.4320475011547158   F   F   F
 15.1166364613771922  9.8439327498346376  4.4184117626259427   F   F   F
 14.3228274105291131  3.2959829182266898  2.2906526704438681   F   F   F
 12.8391658192674676  5.8892782681493898 10.8118909448759570   F   F   F
 11.2817863583001259  8.5248593466689009  6.4837113827580808   F   F   F
 15.1356921728423810  7.1840183573509755  4.4203398904307294   F   F   F
  9.0935107599969527 15.0383025326494284  6.4757796310200391   F   F   F
 14.3515451728780636  5.8426520459598805  8.7022612719496983   F   F   F
 11.9531199678531479  7.2821994093301425  2.2716606898054854   F   F   F
  9.9002920087908119  8.4498126148791943  2.2262910067111386   F   F   F
 16.5370474047238538  2.0894662816112337  8.6437787580817051   F   F   F
 16.5131606678167842  7.2163890537176751  2.2846400909190359   F   F   F
  9.0604987528107692  9.7700691716791646  6.4296394757959296   F   F   F
 15.1027696290903126  4.5967512854861372  4.4338204185935819   F   F   F
 17.2956078625330356  3.3206919455564723 10.7901219890268383   F   F   F
 21.0685492692067662 -0.4820636357982124  2.2473560965640162   F   F   F
 24.0514390892649814 -3.0684481521574707  4.5190598928067534   F   F   F
 24.0629798722650357  4.6743304179888412  4.5054241542779820   F   F   F
 23.2691708214169566 -1.8736194136191084  2.3776650620959057   F   F   F
 21.7855092301553128  0.7196759363035969 10.8989033365279937   F   F   F
 20.2281297691879658  3.3552570148231062  6.5707237744101175   F   F   F
 24.0820355837302245  2.0144160255051791  4.5073522820827661   F   F   F
 18.0398541708848015  9.8687002008036284  6.5627920226720766   F   F   F
 23.2978885837659071  0.6730497141140841  8.7892736636017350   F   F   F
 20.8994633787409896  2.1125970774843470  2.3586730814575230   F   F   F
 18.8466354196786554  3.2802102830334015  2.3133033983631757   F   F   F
 25.4833908156116991 -3.0801360502345574  8.7307911497337365   F   F   F
 25.4595040787046258  2.0467867218718840  2.3716524825710730   F   F   F
 18.0068421636986180  4.6004668398333664  6.5166518674479663   F   F   F
 24.0491130399781561 -0.5728510463596557  4.5208328102456194   F   F   F
 26.2419512734208773 -1.8489103862893224 10.8771343806788732   F   F   F
  3.1758624474310775 20.2502949476047824  2.0512042190002164   F   F   F
  6.1587522674893016 17.6639104312455153  4.3229080152429527   F   F   F
  6.1702930504893443 25.4066890013918467  4.3092722767141813   F   F   F
  5.3764839996412679 18.8587391697838882  2.1815131845321054   F   F   F
  3.8928224083796259 21.4520345197065829 10.7027514589641939   F   F   F
  2.3354429474122802 24.0876155982260975  6.3745718968463176   F   F   F
  6.1893487619545331 22.7467746089081757  4.3112004045189662   F   F   F