Pt   Pd   Ni   Co   Fe   
1.0
8.9376458108602996 -5.1802149457454973 -0.0567105282974228
0.0080191628188567 10.3804102116489076 0.0354715520566029
-0.0291723129497411 0.0284155346846664 22.9142788501274843
Pt   Pd   Ni   Co   Fe   
15   14   16   18   17   
Selective dynamics
Direct
0.9330084156530632 0.03540457770808639 0.18702891754164397    F   F   F
0.9370277811192932 0.78212340205558 0.465777385206237    T   T   T
0.9309399463273051 0.03329250114062895 0.4670453062898559    T   T   T
0.8410252996659534 0.11779868029435084 0.09345992137039803    F   F   F
0.6833263077474286 0.2862144550775416 0.46477487498225467    T   T   T
0.3443074615683243 0.11549092906887413 0.09477518050873836    F   F   F
0.9328381135583612 0.2862364200747737 0.4668668354537422    T   T   T
0.10681027067908955 0.11474111603595562 0.3762936425418318    T   T   T
0.4399995099758077 0.0403980756853477 0.18985475301281732    F   F   F
0.10185610094187476 0.369008608341471 0.37685807550634115    T   T   T
0.344180202199053 0.8739390633840053 0.3740734419617842    T   T   T
0.5996727746955757 0.6066639738339451 0.3760749888941752    T   T   T
0.3462913759652183 0.6156604175855867 0.09431242857035144    F   F   F
0.5149091806333537 0.4512825556412991 0.28422402733846625    T   T   T
0.6766496202354606 0.5217373732069249 0.18562719370095854    F   F   F
0.4275563361170414 0.5328892528569126 0.19234824397008896    F   F   F
0.8413197997988019 0.6139451854161654 0.37736763989504846    T   T   T
0.02173474090586528 0.4546760589236269 0.2780816728102795    T   T   T
0.34958585041571166 0.864159564359624 0.09361907379771887    F   F   F
0.43156832201646284 0.03763791481775669 0.46463463143704364    T   T   T
0.9336178807456956 0.5282630036184777 0.46864038878611347    T   T   T
0.7675716117624194 0.9499906206632355 0.2811874302180294    T   T   T
0.02251051152819996 0.7042517321147409 0.28297399837722914    T   T   T
0.34913821536131506 0.3677324052535572 0.09568982492842946    F   F   F
0.9330791592469541 0.7826522303354073 0.18594075771481394    F   F   F
0.8462115067867799 0.6129275593953715 0.09177381925590794    F   F   F
0.18735473280257206 0.775541809879379 0.18753437823637154    F   F   F
0.5121135761408487 0.942575756801664 0.28044733951829964    T   T   T
0.7612428224489634 0.4465263387234132 0.2835983291791968    T   T   T
0.18001852405954027 0.28575337969880216 0.46727644574397376    T   T   T
0.09430782914921404 0.3633905336313797 0.09731049900224811    F   F   F
0.09520373626926022 0.8671394584731431 0.0947058897311295    F   F   F
0.6824059528822712 0.038484619154533356 0.46701801956831    T   T   T
0.16879051662097533 0.7818767040814312 0.46577955129217435    T   T   T
0.6784346451577382 0.7871220971316463 0.18694270237856583    F   F   F
0.1805427082220627 0.2837509013437296 0.18654459674976678    F   F   F
0.18808013797935327 0.030379588664437667 0.4658898143543894    T   T   T
0.9318888380500441 0.5214548661560927 0.18709702270279055    F   F   F
0.4193711368659133 0.78002151332396 0.4690882554075612    T   T   T
0.358468825410683 0.12406208431850618 0.37439149998264154    T   T   T
0.6015861979464926 0.8630220458468577 0.09698664610021457    F   F   F
0.3555634273280885 0.6154794985488106 0.37258783763316716    T   T   T
0.17424824673122172 0.5281076124295231 0.4707964027064169    T   T   T
0.5144855195568423 0.1961815491146452 0.2835021477666539    T   T   T
0.09415490585265307 0.11111849022097574 0.09534098395864561    F   F   F
0.5935282559613132 0.36406197052350653 0.3747510353657042    T   T   T
0.3610900328112604 0.3753258077985547 0.37463915335086423    T   T   T
0.26248418959602693 0.9546543246269028 0.28126515472093    T   T   T
0.017982222287650562 0.9514908564731912 0.2816893097236947    T   T   T
0.6839458440504715 0.5314291002921583 0.4674741090915928    T   T   T
0.8455699442397735 0.36333188158111424 0.3758057249559275    T   T   T
0.2690938089395338 0.6949693123833337 0.2808810943648252    T   T   T
0.27717402355708615 0.20673327680168035 0.28069673577340026    T   T   T
0.446866387189575 0.7864236982190111 0.18922785389191418    F   F   F
0.6902598717767703 0.28103528995710547 0.18374033112081148    F   F   F
0.18628201792409305 0.038170257212471206 0.18744802965097548    F   F   F
0.6828854765966614 0.7757331361416044 0.4694620733699697    T   T   T
0.930163731313691 0.28759310557439105 0.18609695985773086    F   F   F
0.6087236961276142 0.35791272842364424 0.09309194932481123    F   F   F
0.0903448288001599 0.6030482925100954 0.09745929547537033    F   F   F
0.680380455345842 0.03073797090721286 0.18640673545729794    F   F   F
0.2687307115707217 0.46022291636315743 0.28411756171169916    T   T   T
0.8539252857719118 0.8736842794720961 0.37190895954011877    T   T   T
0.7635326649328705 0.19801826065850706 0.2802751490083428    T   T   T
0.43183503849550414 0.2782892662314136 0.1880774767582558    F   F   F
0.16839676588582114 0.5183787557326188 0.18651956107736853    F   F   F
0.09469600282599283 0.614701296598423 0.377614819785864    T   T   T
0.4229848083236621 0.27552551840584 0.4632064870795296    T   T   T
0.02049081046002742 0.20736949463556412 0.2800225064381311    T   T   T
0.6016850331801362 0.12345510389680117 0.09532779178931108    F   F   F
0.7583272477698014 0.7032878710999036 0.28318728535418264    T   T   T
0.604530800890754 0.8666501434359075 0.3742122119913474    T   T   T
0.5088012849902456 0.6970506989624438 0.2825428430886854    T   T   T
0.6051145764275108 0.6263354802326824 0.09468193185953946    F   F   F
0.6029589711279393 0.12343597771641283 0.37536564426180197    T   T   T
0.8437768213333225 0.8670361397190102 0.09334830370572483    F   F   F
0.09208796115645722 0.8664256850478647 0.375689143416492    T   T   T
0.8452866821334524 0.11844604120949939 0.37515914946511497    T   T   T
0.425505187079997 0.5237530285586369 0.4675486930626758    T   T   T
0.8556480801139419 0.3727156443787103 0.09380749991405408    F   F   F
