Pt Pd Ni Co Fe  O 
 1.0000000000000000
     9.0340449026756904   -5.1863640343239883   -0.0329596665155511
    -0.0452646728033608   10.3009042091468341    0.0215612643051300
    -0.0046364029181434    0.0106125467227488   22.9526079284771853
 Pt  Pd  Ni  Co  Fe  O  
  16  18  15  16  15   1
Selective dynamics
Cartesian
  6.1238750320412265  1.9343408922025565  4.3128497471816205   F   F   F
  3.2233840570126304  4.5599271305169236  8.6620695176404148   F   F   F
  2.4415836288468302  3.2161308331159137  6.4668935822592042   F   F   F
  6.0966402556500077 -3.2367779167774189  4.2909308021988704   F   F   F
  7.7016690107862784 -3.2219582904434247  8.6464481875249728   F   F   F
  3.1488657919134098  2.0432624027968207  2.1435002373512324   F   F   F
  8.4051068117623409  0.6636949758879911 10.7801695733014551   F   F   F
  0.0239696380885458  9.6301563785051147  6.6012780407995608   F   F   F
  6.1329085763470488 -0.6874600732788335 10.9042157486795173   F   F   F
  1.6699403576187390  4.4835005511915220 10.8805258969147900   F   F   F
  3.8979614631318911  0.5641718668974192  4.3577530570923573   F   F   F
  2.2969160739487720  5.8324335083948302  6.5113854251891263   F   F   F
  8.3590636927113930 -1.8378978380971553  4.2652647587969703   F   F   F
  2.3479611161637197  8.4411646177265478  6.5290691403879704   F   F   F
  4.6697870931385674  7.0296200935241480  6.5368672113104029   F   F   F
  8.3953313834278269  3.1673748209357662  4.2448316352801863   F   F   F
  5.4299913789395280  3.3561220520953072  2.1156658501453003   F   F   F
  3.1176092265828381  1.8598350855947019  8.6738003893992328   F   F   F
  5.5558695920766592  0.7896592480678991  8.6121315730197896   F   F   F
  8.3808082138234727 -4.5513981531777032  4.2885589830307902   F   F   F
  0.0920885958611155  2.0026730185337782  6.5315710307739314   F   F   F
  3.1062357923717236 -0.6971124772080097  2.1284963482874857   F   F   F
  5.4115036734115964 -1.9013438258526216  8.6794815865892847   F   F   F
  8.4236929675973897  3.3894710439647580 10.8382997428027856   F   F   F
  1.6391771623521842  1.9439864267264642  4.3183369350675056   F   F   F
  1.6386142487835740  4.5606684732081275  4.2048356827179934   F   F   F
  5.3854237672125125 -1.8512505286675693  2.1037945150924560   F   F   F
  1.7239156324787830  7.2025835040107982 10.9321317226860781   F   F   F
  0.8586957010652819  0.6459550703436036  2.0870196925356610   F   F   F
  6.0641288109718232  2.0551689607591648 10.9013943716289585   F   F   F
  7.6604157225823615 -3.2195117116776548  2.0768342347401827   F   F   F
  1.6678085346079699  7.1388135042670404  4.2184737439757134   F   F   F
  4.7252983271561169 -0.5611153398267064  6.5242332371428544   F   F   F
  7.6602798411120618  4.4464492216490754  2.1064342260955322   F   F   F
  6.2029316484726866 -3.2377203185612839 10.7785425680553395   F   F   F
  3.9245813710952882 -1.9489871863878918  4.3094186141793847   F   F   F
  6.9831442591429935  0.6717883566959786  6.3963645350972911   F   F   F
  0.8499203145967344  0.6105202872835539  8.7115440702463509   F   F   F
  5.2795779439464079  5.8406501277577769  2.1252602799782676   F   F   F
  3.8748909771380560  3.2571253936600142 10.7719782381331903   F   F   F
  7.7139545118188568 -0.5385742908147552  2.1535950574150706   F   F   F
  3.9199718799062007  3.2880430594653065  4.3207976049100072   F   F   F
  0.8185307749841070  5.8560301005856203  2.0896123287855359   F   F   F
  6.1267168261497034  4.6302548338964753 10.6921673201987684   F   F   F
  6.8293039434599265  3.1871046610132279  6.5158865916194486   F   F   F
  0.8198119418339840  8.3300411635153360  2.0867679573566713   F   F   F
  3.9035902355293581  5.7464563231922874  4.2333871697438816   F   F   F
  4.7025144927608480  2.0248566780379820  6.4711464835577619   F   F   F
  5.4865814771449388  0.7177962880660724  2.1569836775235287   F   F   F
  1.6433535062489331 -0.6327380057814780  4.3194436001577943   F   F   F
  3.0352640164366207 -0.7098097060044896  8.7395522730824986   F   F   F
  3.1271115954671775  7.0174033143703154  2.1472896313300507   F   F   F
  4.0084271348114333  5.8874339591540341 10.7024140108128858   F   F   F
  0.8253932556076484  3.3499167746311103  8.6691217391884479   F   F   F
  7.6759763824356924  1.9336910376757348  2.0875349116502866   F   F   F
  6.0746172500722890  4.5266137452459176  4.3500399903493578   F   F   F
  6.1603575952579970 -0.6167574657186187  4.3172747608001325   F   F   F
  3.9612398643246718 -1.9061260302405136 10.7284057667451442   F   F   F
  3.1192542531516083  4.6019518115861926  2.1477658075059889   F   F   F
  0.8618655270926077  8.4280171546502753  8.6831603241445396   F   F   F
  0.8910567227992411  3.3826855666576323  2.0069053192671027   F   F   F
  3.8153754716088040  0.5554125707144701 10.7283464169923537   F   F   F
  7.5626275623226675  4.4644749322454436  8.6369524987924748   F   F   F
  6.9320896695654461 -1.8238326438933434  6.3983510509602102   F   F   F
  0.0508264797715200  4.6019174505714968  6.4772605190513133   F   F   F
  5.4457057577910026  5.7992774214727358  8.6945044515698751   F   F   F
  7.7835328820140877  2.0138270550336901  8.6018636760783185   F   F   F
  2.3863432489404759  0.6611096419479442  6.5168835593510783   F   F   F
  8.4220584128227660 -4.4439759840152284 10.7398521911590574   F   F   F
  0.8699140642836812  5.8448724369789220  8.7219939510068833   F   F   F
  1.6325678838118447  1.9361928892308866 10.7598214335569455   F   F   F
  8.3548715617959353  0.6396774138272379  4.2271050273584825   F   F   F
  3.0566785798593967  7.1663930285469641  8.7234739850509921   F   F   F
  0.0222062975877191  7.0362575630502695  6.5488304488989186   F   F   F
  8.4310794581475967 -1.9155345949778806 10.7491314387710322   F   F   F
  6.8410881382368771  5.7059078280556097  6.4721266826765165   F   F   F
  1.7252422572665567 -0.5380158064790947 10.7181223967996502   F   F   F
  5.4768714192430004  3.3296652144165613  8.6186486035409597   F   F   F
  7.8025026883833055 -0.5904377939162230  8.4501799842289156   F   F   F
  4.6871813060726870  4.4583845332925733  6.3653588625018047   F   F   F
  7.7548479525367568 -3.2132552191700396 11.9400813588119501   T   T   T
