Pt Pd Ni Co Fe  O 
 1.0000000000000000
     9.1015864070951036   -5.2032637566629534    0.0135335626032607
    -0.1048194161324762   10.2330445343961571   -0.0356398617946417
     0.0215696504490981   -0.0608953522147757   22.9612949984530239
 Pt  Pd  Ni  Co  Fe  O  
  17  17  16  15  15   1
Selective dynamics
Cartesian
  1.6945539291431666  1.9940441603200041  4.2988356152033749   F   F   F
  1.7216248986255471  4.4394285645931344 10.8837340177041675   F   F   F
  0.0613566888022703  1.9537975435636961  6.4494945418000196   F   F   F
  0.8640736820879421  0.6256932231402377  2.1462395732243813   F   F   F
  8.4849376867344102 -1.8834920144194818  4.2671116359049845   F   F   F
  6.1462029386006947  4.5092058942625117 10.7156648569827730   F   F   F
  3.0463954974602050  6.9400396604073178  8.7245877388044057   F   F   F
  5.4657686568144603 -1.9950624580248644  8.7134230838859867   F   F   F
  3.8427723832299998  5.6679469949502197  4.2377538509551984   F   F   F
  4.7303667848577211 -0.6135300136722017  6.4594610365617049   F   F   F
  3.2022369874806733 -0.5821123043072902  8.8037806249126653   F   F   F
  5.5293428530326034  0.6114039127909240  2.1183826722575527   F   F   F
  3.1388077248489630  2.0082441509605582  2.1192758374182596   F   F   F
  7.7241547880736370 -0.6205983318530037  8.6764023441761839   F   F   F
  2.4586077253317775  0.7143045283191770  6.5025189696424404   F   F   F
  2.2765670245717704  8.2749627262130758  6.4036342137497595   F   F   F
  4.6769673658878643  6.9057103649543548  6.4368851537692127   F   F   F
  7.0077675945288771  0.6950635378025330  6.4742985908709318   F   F   F
  7.6632834138176102 -3.2403401372570855  2.1560714744732352   F   F   F
  6.1783321022687101 -0.7274933350685227  4.2523966619402991   F   F   F
  8.4469774066725218 -2.0314363099818138 11.0151706668458580   F   F   F
  6.2659128184669495  1.8448220943818279 10.8271944098499198   F   F   F
 -0.0678475633416906  9.5136198716179621  6.4353270248245371   F   F   F
  3.9068989943671131  0.6069347851966367 11.0951980226114379   F   F   F
  0.8738703526901974  0.5983428422173612  8.7181526817037263   F   F   F
  0.9615194858263918  3.2670898979054486  8.6163398847334651   F   F   F
  1.5591930648937571  7.1101065760786648 10.9863316005339939   F   F   F
  6.1763545740455363  1.9841784019511870  4.3379724866171774   F   F   F
  3.1650322584359305 -0.7456464717815904  2.1780935644232424   F   F   F
  5.3821832865461916  3.3232984839086339  2.1503374539205602   F   F   F
  7.6577168825012132  4.3652577647749364  2.1289946645645648   F   F   F
  7.6730096163587742 -3.3711939597360074  8.7039439889877013   F   F   F
  2.2892884089432930  5.6360267703803055  6.4821356745842129   F   F   F
  7.7981659571549677 -0.6174951169138005  2.1009215523193983   F   F   F
  5.4792395178611182  0.7284519978794378  8.6323059098729864   F   F   F
  6.1796599652203632 -0.7178438378178117 10.7921752838962046   F   F   F
  1.6544423794660472  1.8847475431406917 10.8112228819733840   F   F   F
  6.1384971518934597 -3.2275517126743574 10.8480141526842875   F   F   F
  6.8196085087145821  3.2020667656828903  6.5120601640318458   F   F   F
  0.0992782110964878  6.9924194617895630  6.4159350116604417   F   F   F
  6.9680348264144767 -1.9850893543361083  6.4468123144662828   F   F   F
  6.8285704650220440  5.6356020132293940  6.4450448104421785   F   F   F
  7.5986807336951641  4.2795781025852673  8.6373132630457121   F   F   F
  3.9180256250366763 -1.9931832808239576  4.2447836742353555   F   F   F
  1.5886712899055913 -0.5824071703753501 10.8422914665693497   F   F   F
  0.8400762980303649  5.7720579768196343  2.1726242037100740   F   F   F
  8.4646686778007929 -4.5683165842537115  4.3254725183549105   F   F   F
  0.0763266060310579  4.5076473893466886  6.4227903058123434   F   F   F
  3.9576055144873523  5.7074172002816432 10.7206953548626753   F   F   F
  0.8077870578647421  5.8237587583948427  8.6600999005463777   F   F   F
  5.3812252859231213 -2.0568113935279584  2.1806049210955929   F   F   F
  3.0595299521302146  6.9968595835665512  2.1171607618141701   F   F   F
  4.6428533428495005  4.3046683437999222  6.4308118952944939   F   F   F
  7.7779534630378535  1.8167263316400286  2.1423510833769184   F   F   F
  0.8843809923501620  3.3100714810439986  2.0523221686340820   F   F   F
  8.5241287450527796  0.6804866526176562  4.2256730751128329   F   F   F
  0.8593902744596325  8.2200086427031014  2.2000723158435851   F   F   F
  1.5388989373693052  4.6099491818433123  4.2848713653483523   F   F   F
  6.2204642360111180  4.5357691401143398  4.3649134760083808   F   F   F
  8.5609452969580122 -4.6149638882854171 10.8143328642528598   F   F   F
  6.2299433972055205 -3.3114374034894896  4.3277714211633524   F   F   F
  3.2981894547140045  2.0198122426296572  8.7695601725713654   F   F   F
  4.0433003261846210 -1.9838380767549466 10.8505636063154718   F   F   F
  5.3245836079838709  5.5072446825177961  8.5115214965253134   F   F   F
  3.0046208613899701  4.5442610059727535  2.1410372071199926   F   F   F
  8.4651919933698920  3.2668948207371726 10.7486189425723566   F   F   F
  8.4827157798017883  0.5800972598823206 10.7584858600302020   F   F   F
  8.4724106977122684  3.1138320297234316  4.2617684935233306   F   F   F
  5.4466644935209292  3.1250262830001279  8.6089618644124499   F   F   F
  1.5784615875956964  7.0307927151173706  4.1988491002237094   F   F   F
  3.9182084942987054  3.1829420618616591  4.3255097679621146   F   F   F
  3.9007178491988581  0.5503178646223650  4.2968103927576911   F   F   F
  0.8050571565011045  8.2600916161047166  8.6643962480449890   F   F   F
  5.3168716554336308  5.8484701497623517  2.1203175280641058   F   F   F
  3.8909303553940000  3.1564620780677464 10.7979328756195159   F   F   F
  7.7965843628618368  1.9147478091686305  8.6014971619793972   F   F   F
  3.2085722031203017  4.4123262866379749  8.6789994435912110   F   F   F
  4.6930346781890444  1.9775778178526804  6.5455403727251893   F   F   F
  1.6192048856890509 -0.6874073212341935  4.2917626806155242   F   F   F
  2.3873011691073875  3.2134337391343948  6.5011329569203342   F   F   F
  9.1619343479862430  4.4637762372761962 12.0059248585632261   T   T   T
