Pt Pd Ni Co Fe  O 
 1.0000000000000000
     8.8996987012772220   -5.2211388842501600    0.0348443425744497
    -0.0054571542633916   10.4392049630635277    0.0175190658815651
     0.0905460515111628    0.0049265404080968   22.9370260653751217
 Pt  Pd  Ni  Co  Fe  O  
  14  16  17  15  18   1
Selective dynamics
Cartesian
  4.6027923070677410  4.5575312315346634  6.5920259310506228   F   F   F
  3.8016212762554282  6.0255346140563439  4.3742791392578013   F   F   F
  3.2213914346166108 -0.6933996109653547  8.6207778500288637   F   F   F
  5.4457741042204102  0.7407255262318105  2.1484830028867177   F   F   F
  5.3248320413844983  5.8572838374151637  2.2071206659095477   F   F   F
  0.2440726708429624  7.1995177179711423  6.4601389835171270   F   F   F
  0.9105201253126012  5.9587576759802028  2.2475094185831588   F   F   F
  0.1595672759992459  9.8018926393769110  6.4595140167832419   F   F   F
  6.7464649167578443 -1.9284716900317980  6.5978768235407124   F   F   F
  6.1724738417246563  4.6180904202133606  4.3841390842144659   F   F   F
  1.0156627285476756  3.3419466481905884  8.6741892430308081   F   F   F
  8.3939027772172619 -4.5296420093641405 10.9209487625603590   F   F   F
  5.4104816047763515  5.9641631812371925  8.6913948838468293   F   F   F
  3.8255813143394457  3.2449880508555937  4.3746551179868991   F   F   F
  6.0545059030939168 -0.5658251930770783  4.4101780164706375   F   F   F
  3.9528317097950332  0.6742060726771164 10.8323330473175670   F   F   F
  3.0685364166515701 -0.6541934355017187  2.1938897042164767   F   F   F
  8.3229900985494165 -1.9463948433083114  4.2933513553240052   F   F   F
  3.1442401002472007  2.0035187061876547  2.1706041017508455   F   F   F
  0.8876235905142666  3.2623869165910779  2.1412062270355077   F   F   F
  2.5090865467724917  0.7224075431118844  6.4256215040497420   F   F   F
  1.6680904155907488  7.1986152021783205 10.7998352647352398   F   F   F
  8.3760234361306178  3.2520884306285551  4.2780476433494057   F   F   F
  3.9311089683795233  3.3483550253256422 10.8093003765427902   F   F   F
  0.1674098931191288  1.9873482374300839  6.4433993609148059   F   F   F
  6.0839729596691203 -3.1610050665804490 10.9354209716886945   F   F   F
  0.9328399562018942  0.6665394019155226  8.6572300404308287   F   F   F
  0.2062447781652262  4.6323186329831696  6.4601701428790763   F   F   F
  5.3397541083465665 -1.9488630063628449  2.2662675240672185   F   F   F
  7.5867819116407018  1.9741412277221944  8.6429858514393612   F   F   F
  6.0965957882094868  1.9772078238984760  4.3820959006865765   F   F   F
  1.6993155774833868 -0.6608702610579958 10.7291407535734056   F   F   F
  2.4232094639649677  3.3176308378950941  6.4992342665768277   F   F   F
  2.4398944119143624  5.9285922602844350  6.5166367790239619   F   F   F
  3.2657024510022934  2.0663092232686138  8.5696381006622584   F   F   F
  7.6234787325550046  4.5800454468342906  2.2222917204245403   F   F   F
  5.3762439045419868  3.3027752211557875  2.2011121745037228   F   F   F
  7.6014858855988718 -0.6236435248558639  8.6916583581583122   F   F   F
  8.3232787128029067  0.6952796439487851  4.3344155778597555   F   F   F
  1.6730916603517689 -0.5910323187657137  4.2859077160074444   F   F   F
  4.6024252173653464 -0.6090069544377849  6.4979406149505996   F   F   F
  7.5919538706948799 -0.5638086903407104  2.1740608298285142   F   F   F
  7.5934713965719540 -3.2760998997406738  2.2057665306241012   F   F   F
  6.8183577681404373  3.2830395433608324  6.5164713833734718   F   F   F
  0.9834621254814843  5.9143746659445471  8.6637173592160135   F   F   F
  6.8326931464729421  5.9020040568468790  6.5185134039302088   F   F   F
  8.3687943025340843 -4.5145404768036661  4.2853776604039266   F   F   F
  1.6879250524953404  7.2824171260059076  4.3261894774545304   F   F   F
  4.7662707759209253  1.9183200103668214  6.5378065766110929   F   F   F
  3.8758057859823638  0.6920348914989396  4.3298491169378837   F   F   F
  1.6484657756531744  4.6240043552620804  4.3200582648324373   F   F   F
  3.1138874195085142  4.7367914957712163  8.6857835537540602   F   F   F
  6.2416193759713279 -0.5283875597596842 10.6638438224365064   F   F   F
  3.0292055617382432  7.2217926036662448  2.1698528206293419   F   F   F
  1.6566822818474038  1.9168662015698474  4.2884517000718727   F   F   F
  7.5989479127066026 -3.1483652985326787  8.7409057586416417   F   F   F
  7.5609126738835375  4.5778877608099142  8.6716801699157973   F   F   F
  7.5918013642088091  2.0219351646732866  2.2175522024429029   F   F   F
  0.9319479193717627  8.5023416950847803  8.6173861866970096   F   F   F
  5.4663509090803144 -1.8492214439172034  8.7884720943896077   F   F   F
  2.4955692851943723  8.4804304769211782  6.4644852159343476   F   F   F
  5.4215597694377857  0.6504663565263695  8.5709061259752417   F   F   F
  0.9286950406215213  8.5014951114923587  2.2006238565651479   F   F   F
  3.1216982141802725  4.6344934491840393  2.1777939213067214   F   F   F
  1.6076891184205546  4.5870822317376732 10.7676770321794759   F   F   F
  3.0827282844484731  7.2108578730559563  8.5815267734630094   F   F   F
  8.2986144752684829  0.6687951109014549 10.7277551674596516   F   F   F
  3.9255262483136351 -1.8673742764684258 10.7400649923200646   F   F   F
  6.2280759890596071  4.5306675054734047 10.7417410526241088   F   F   F
  8.3915661603157083  3.3579564087256517 10.6856182269661293   F   F   F
  4.5627567554045134  7.2599394919242757  6.5370615594320025   F   F   F
  1.7017137821347499  1.9789047077139332 10.7703392137719742   F   F   F
  0.8162840140762490  0.6577572856455151  2.2415862408236302   F   F   F
  6.1775044255918674  1.9466255768948746 10.7572957860377212   F   F   F
  6.1447758935902819 -3.2477866921528662  4.4191215034922386   F   F   F
  5.3753496186762115  3.2266720786697989  8.6231728454401857   F   F   F
  6.7878211415075684  0.7369619188409059  6.4827170176818916   F   F   F
  3.7552895031281994 -1.8302617052264747  4.4126329914908506   F   F   F
  8.3437357788861899 -1.8952557637221530 10.7534839295417335   F   F   F
  3.8558842663149471  5.8846862301009946 10.6681498316745387   F   F   F
  6.9458120693671486  0.7334647422606214 11.9931761172771072   T   T   T
