Pt Pd Ni Co Fe  O 
 1.0000000000000000
     8.9397770486072758   -5.1814726206920749    0.0463427823500005
     0.0136389075752380   10.3931643794297610   -0.0092827509108429
     0.0877940010607633   -0.0284434316271866   22.9218207117341919
 Pt  Pd  Ni  Co  Fe  O  
  19  14  16  15  16   1
Selective dynamics
Cartesian
  1.6254115153883368 -0.5434374192450847  4.2640645693595705   F   F   F
  5.3533357625078528  3.2924749501536650  8.6513608346141382   F   F   F
  7.7587309658812043  4.6285066385208493  8.5825268542667139   F   F   F
  3.8971199140544646  5.9638149138754981 10.8145980732880176   F   F   F
  4.0212106145249633  5.8601176480129311  4.2322105255846534   F   F   F
  3.9479981951222132  0.7616120183537571  4.2388597296883637   F   F   F
  6.2500871961403339  1.9280689838021539 10.8898194845901166   F   F   F
  4.7846781294119296 -0.6818084622853624  6.4528283437322420   F   F   F
  6.2966574748035713  4.5687121804322688 10.8915793131151997   F   F   F
  2.3236111482069299  0.7859560590371095  6.5034781650177296   F   F   F
  7.5553080247587019 -0.6088229969381792  2.2388905959490546   F   F   F
  7.5906792697292529  4.6126406186642575  2.1267024522742308   F   F   F
  3.1742670209996251 -0.6131486195416327  8.6894696047436550   F   F   F
  0.9092574938773189  5.7850402952941398  2.0827412898915179   F   F   F
  6.9550498066533182  5.9809126520924387  6.4040900363692597   F   F   F
  5.3090097858813197  3.2928086600964730  2.2730241737133090   F   F   F
  7.6358747834134562 -3.1983555070426615  2.1971226796297993   F   F   F
  6.2332329098168158 -3.2146749866190301 10.7738753083269447   F   F   F
  0.9272939795390739  3.3031374325276874  8.5227507643216924   F   F   F
  1.6798772551361767  1.8920449311290799 10.8585787989929710   F   F   F
  7.6674704479273412  1.8970333290889749  8.6228014404615507   F   F   F
  2.4066799311530889  5.8100256414227376  6.5201053588472613   F   F   F
  1.6661080140853279  7.1115151525764198  4.2826287379457844   F   F   F
  8.3104018930716155  3.2871258544421700  4.3432941350080947   F   F   F
  0.8841181445621772  8.4780415130950679  2.0251805026984577   F   F   F
  2.4467011717088329  8.4558686803589254  6.4915874319487656   F   F   F
  1.6137098133662215  4.6185370095095966 10.8911502612255298   F   F   F
  3.2143297938915434  7.1528369087093466  2.0710582326511839   F   F   F
  4.7108320671787114  1.9885765559961206  6.4692226368240142   F   F   F
  0.1398878825662986  7.1304664576801144  6.4667458224023040   F   F   F
  4.6717708896184025  4.5923039007168569  6.4631301661879679   F   F   F
  6.1881395303044426 -0.6484820950701745 10.8304355422302869   F   F   F
  3.9280124340291325  3.2485148927338869 10.9812248724294488   F   F   F
  3.1831807305081217 -0.5427945362068898  2.0825161491241202   F   F   F
  6.1712908632925298 -3.1359232685099108  4.3396938698908807   F   F   F
  6.1930104188362876  4.6068680907896393  4.3355703495467450   F   F   F
  5.3824561104367108 -1.9374139222062783  2.2027341938902767   F   F   F
  3.9348054597078375  0.6472685376061961 10.7328173609408601   F   F   F
  2.3643356235306681  3.2902631636523609  6.4138897460776336   F   F   F
  6.2085282498403309  1.9469384026676237  4.3340403154421381   F   F   F
  0.1846643628524569  9.8066469765555446  6.4223799508093080   F   F   F
  5.4390209879280640  0.6012803611197377  8.6174335013815622   F   F   F
  3.0179166535294843  2.0519433742899911  2.1978746960005417   F   F   F
  0.9664868572142448  3.2223252333086680  2.1617975187651890   F   F   F
  7.6193611273044297 -3.1546939571330590  8.5459733514345171   F   F   F
  7.5779225865867836  1.9801319051574620  2.1932609554753726   F   F   F
  0.1445774692467129  4.5384741926473717  6.3699553108540732   F   F   F
  6.1722881213691272 -0.6403588285252956  4.3444564699927408   F   F   F
  8.3877575590332025 -1.9271067481047339 10.6908296054505065   F   F   F
  8.4420873690911051  0.6827463212230899 10.7232362603420608   F   F   F
  3.1539969020805514  2.0154494291367677  8.6866309879304993   F   F   F
  8.3834253086965003 -1.9191213967814638  4.3895314112068098   F   F   F
  1.6461661523473523  7.2659801426410162 10.6858607431741870   F   F   F
  6.9269396805141898  0.6402054219765442  6.3877207797119882   F   F   F
  8.5291920436167796 -4.6332050679795183 10.7261543972736337   F   F   F
  3.1411975171683171  4.5971147424536607  8.6789928233213676   F   F   F
  4.7443556836727554  7.1910325859415032  6.5282620687911290   F   F   F
  3.8761117165088179 -1.8991636796494020 10.7247881754828498   F   F   F
  1.5679137803174350  2.0406879655793713  4.2804792320271989   F   F   F
  6.9705737317367795 -1.8451997832993041  6.4585487849997811   F   F   F
  8.4125109972260024 -4.3695631137152864  4.3387135025106263   F   F   F
  6.9017222386068475  3.2909646355841624  6.4566727272430136   F   F   F
  5.3944944545824143  5.9212633257688561  2.0583783643403941   F   F   F
  0.9861734163943080  8.4068199011011142  8.7018562275512519   F   F   F
  0.1476883617751599  2.0952308430211399  6.3991849621212706   F   F   F
  0.9378131329636251  0.7318917418304308  2.1028319095260808   F   F   F
  1.7402367338425901 -0.6934152222393918 10.7740635569096579   F   F   F
  3.1313137191352562  4.5416714225035548  2.0467774173410826   F   F   F
  3.7820717332210649  3.2982338418247252  4.3202881503812893   F   F   F
  3.2088985887582098  7.1466592783320317  8.6534743447470088   F   F   F
  7.6287094143906886 -0.6591245452774110  8.5705457957313200   F   F   F
  1.6731131360069904  4.4545235597902346  4.2683021126605274   F   F   F
  0.9267392169562197  0.6942256731067489  8.6511150790308697   F   F   F
  3.9990030489066837 -1.9312196593235185  4.2940985431763474   F   F   F
  8.3215388367576413  0.6020283089162538  4.3962456096665274   F   F   F
  0.9743272481077657  5.9205013699184592  8.7073741455421256   F   F   F
  5.3971457808356975  5.9621645793220557  8.6108442736941857   F   F   F
  8.5130112439391681  3.2263695992391996 10.7636067420631178   F   F   F
  5.4179318012509601 -1.9664672364066147  8.6241302012117345   F   F   F
  5.4236169654298809  0.7152074958234291  2.2125712303448348   F   F   F
  4.8609137902299553  4.8208798571565694 12.3058573775773468   T   T   T
