Pt Pd Ni Co Fe  O 
 1.0000000000000000
     9.0535546095388657   -5.2013313521841082   -0.0081802735457709
    -0.0512925186725770   10.3195776779144257   -0.0217183998587039
    -0.0010438201918588   -0.0429942890548056   22.9053375955636902
 Pt  Pd  Ni  Co  Fe  O  
  19  16  15  16  14   1
Selective dynamics
Cartesian
  3.8803332998605193  0.7048692881940429  4.3117662650967841   F   F   F
  4.0219037560979629  3.1390533371657909 10.8552668477110519   F   F   F
  6.1984899222725902  4.4122316501972234  4.2493574934828846   F   F   F
  5.4443319783838771  5.8263661619893945  8.5877109564304650   F   F   F
  4.6166758315454839  4.4821535893823343  6.4280576143624115   F   F   F
  6.1103321225107443 -0.7564879310686133  4.2728081200658625   F   F   F
  3.8728587051242105  5.8445097894522071  4.2803173283980289   F   F   F
  1.5581800446498915  7.1417957673111472  4.3085505925834102   F   F   F
  2.3609406363817711  3.1867586106669865  6.3606056822497337   F   F   F
  6.2020708206589577 -3.1574530490097130 10.8358663446692791   F   F   F
  7.7733235243237591  4.5223769207646374  8.4646114329288871   F   F   F
  8.5469706186063572 -4.6187417950153931  4.1898255339204304   F   F   F
  0.8048996104031998  5.8339251626336468  8.5554714217333050   F   F   F
  3.0405827994765602  4.4717731801203859  2.0608230044653624   F   F   F
  5.4204602814365783  3.1082329877415780  8.5640912783725458   F   F   F
  8.3927592826239028  3.2180549283510840 10.7664829302505769   F   F   F
  0.8470863175481880  3.1804836969571819  8.6371059743482821   F   F   F
  3.1258046157751589  7.0920888634413597  8.6347021093668310   F   F   F
  3.2117016244420342 -0.5266382748384913  8.6429149285139211   F   F   F
  1.6509987555645305  7.1180693704160785 10.8972519254563363   F   F   F
  0.8036964507259979  8.4893839994548781  2.0832178390454774   F   F   F
  7.6419469080205991  1.9110140046042690  2.0829455955005467   F   F   F
  5.4128930087621292  5.8410488035545169  2.0470140499118719   F   F   F
  1.6154474045794041  4.4781378649602583 10.9087949974160452   F   F   F
  3.1100123474029577  7.1439751417177133  2.0554920058028472   F   F   F
  8.4921829154327764 -1.9540016266321929  4.2645906087841148   F   F   F
  4.6994077123922819  7.2169289369139502  6.4098106936845136   F   F   F
  1.6731838008074011  1.7943100772263845 10.8522895241730026   F   F   F
  0.0667935325383665  1.8612298411661750  6.4859315315210351   F   F   F
  8.3724032177732397  0.6398900553864068  4.2978297398170460   F   F   F
  6.9173871786598689  0.6428419546632862  6.5145043223368786   F   F   F
  2.3376603007626402  8.4736516823763068  6.4440124080764418   F   F   F
  7.7353578836708143 -3.1718103452575872  2.0340660026586952   F   F   F
  5.3468192681131281  3.1361461352922899  2.0530617611365587   F   F   F
  3.1916668237137005 -0.5234868098221124  2.0858665966041956   F   F   F
  6.1251041424823978  1.9224996295802557  4.3414960110900660   F   F   F
  3.9499568652246708  5.7534586367089151 10.7559415766225062   F   F   F
  5.4898071060652045 -1.8523636915586592  8.6090643870598811   F   F   F
  0.1344757222074724  4.5607174454471133  6.4328378022230366   F   F   F
  6.9574142896327729 -1.9392994053489634  6.5330699417353237   F   F   F
  1.6682944511651183  1.9396048792735310  4.1319022066906141   F   F   F
  0.0931009487280047  9.6374534986269680  6.3889990312436407   F   F   F
  7.6775892272606399  1.8982327803696819  8.6066761951157886   F   F   F
  1.6761583769583424 -0.6742079129208507 10.7016799899432016   F   F   F
  5.4546795984432270  0.6207307381531305  8.6308001453243506   F   F   F
  3.8351143038903732  3.2118625663171048  4.2301471949116127   F   F   F
  6.2127452576880096  4.5240259040452573 10.7344761240353126   F   F   F
  8.4557191220471193 -4.5126286784689125 10.6556383439560172   F   F   F
  0.0909742357943244  7.1845533229493226  6.5008613958560142   F   F   F
  5.4647148499729727 -1.8383525112056947  1.9804856862730242   F   F   F
  3.8577102283820173 -1.8921875539379460  4.2404791976594218   F   F   F
  6.9278690398600729  3.2110211947342053  6.4045067847502439   F   F   F
  8.2544975704660928  0.5594423153918842 10.6483303078394744   F   F   F
  6.1114579385509646 -0.5947698762387623 10.6555853099232607   F   F   F
  6.8711242847075988  5.7800325004123136  6.3692110371386095   F   F   F
  4.6493597912105136  1.8860525044500696  6.4096079507162838   F   F   F
  7.6658727144391738 -3.1581404020128239  8.6377312224400846   F   F   F
  0.8709642654150647  8.4223241531900310  8.6075437198313356   F   F   F
  7.6706026929473969  4.5199406603551067  2.0130480678279326   F   F   F
  7.6226906939503998 -0.6378510375395358  2.0814117536272998   F   F   F
  3.0373718331873154  1.9534840993317635  2.0373378334676047   F   F   F
  0.9034074397810135  0.7545574426838804  2.0079870690472861   F   F   F
  0.9714311145849556  0.6226616109222687  8.5996940512486475   F   F   F
  1.6966738284684912 -0.5844921876754368  4.3412055387519226   F   F   F
  0.8036181599616001  5.7503773316087008  2.1508204491129752   F   F   F
  5.4746386213285172  0.6049643646635391  2.1138330860909398   F   F   F
  3.1255379924860209  4.4885503587271858  8.6694981288196793   F   F   F
  8.4053437541689000  3.1919446296094827  4.3480390183491444   F   F   F
  1.6269032448767036  4.4975839576534238  4.2187343233056946   F   F   F
  4.7046910789263121 -0.5758180290529762  6.5086158816830526   F   F   F
  0.8766671199946158  3.2123105994406083  2.0591172653968974   F   F   F
  2.3581035103871884  0.6684135176305718  6.4247734938164234   F   F   F
  3.1617952792980475  1.9688247308505653  8.5936959460932645   F   F   F
  2.2759824608571635  5.8203575593477206  6.3830542954407425   F   F   F
  8.3764395727071452 -1.9330994592953690 10.7168822949984719   F   F   F
  6.2711880682501464  1.8526546732751799 10.7027221092095743   F   F   F
  4.0330994206917499  0.5079506395728979 10.8226798177870318   F   F   F
  7.6063424717705992 -0.6674495604570808  8.6364818012794764   F   F   F
  3.9567665633043734 -1.9446217854334336 10.7914161957334507   F   F   F
  6.2106635423083221 -3.2627640880565183  4.2867233474087048   F   F   F
  4.7419810409754399 -0.7418014253910777 12.0023387651174325   T   T   T
