Pt Pd Ni Co Fe  O 
 1.0000000000000000
     9.0042196513834405   -5.1816049704556733   -0.0032803803665809
    -0.0273906419229299   10.3222154506969215   -0.0072348151389254
     0.0169439754674682   -0.0247731476155639   22.9374823001325652
 Pt  Pd  Ni  Co  Fe  O  
  16  18  16  16  14   1
Selective dynamics
Cartesian
  7.5641603497970848 -3.0701823741518282  2.1236747191444816   F   F   F
  3.9788634667378400 -2.0506376034506650 10.8572011929055368   F   F   F
  3.8858696927235639  3.2173031606026181 10.7747793774114555   F   F   F
  7.6632527738822471  2.0604418075868587  2.1469156006171763   F   F   F
  8.3664648388855785  3.1117407856045385 10.9134263337729767   F   F   F
  3.1993986521801459 -0.6149253682950578  8.6890148811610981   F   F   F
  8.4077906973331853 -4.4642749386176641  4.2410880905055501   F   F   F
  6.3795190677742619 -0.6450318099884935 10.7796020821294398   F   F   F
  1.6389787955315673 -0.7020724190922429  4.2041871771786621   F   F   F
  7.5967898509240621  4.5243910223886079  8.5754377385109422   F   F   F
  6.1436332078846529  4.5682412441658178 10.9385693528068622   F   F   F
  0.1246949171331209  2.1081382419786081  6.4655096573292656   F   F   F
  5.3470322890601452  5.9118919142443680  8.6527246113059384   F   F   F
  6.0993964474643594  4.4602071465459927  4.2552747607889225   F   F   F
  6.1940986641977620 -0.7645545502166505  4.1977800536915062   F   F   F
  4.6908992889349985 -0.6631515698336995  6.4692929255127636   F   F   F
  6.8390160782457183  5.8303145139503503  6.4342717153805751   F   F   F
  8.5220558232341475  0.6608290648768639  4.2646863326388171   F   F   F
  7.5818668593509644  1.8578634046038118  8.6298036334832116   F   F   F
  0.8769793530453971  8.3496776882091908  8.6118444557299583   F   F   F
  0.8990371830581176  0.7707343527392284  8.6658110252016556   F   F   F
  3.0574175907086079  4.5630238534124201  8.5309147049228482   F   F   F
  3.8156983015572243  3.2686985809993860  4.3081913873296260   F   F   F
  3.1044030359764223  4.5604637940198414  2.1101102919914827   F   F   F
  6.9964431970433232  0.6426209269805805  6.4323760156149810   F   F   F
  2.2977391143183854  8.3096252848203687  6.4147305941326112   F   F   F
  4.5676386253019672  7.0481884436320668  6.3935981248978706   F   F   F
  2.3676471669482253  0.7090695297116373  6.4206758239899768   F   F   F
  1.6216238267322667 -0.6144461620150133 11.0025048423449174   F   F   F
  3.9280023721463455  0.6629845216815073  4.1826369357283459   F   F   F
  3.9655035964530700  0.6439210842837702 10.9828176254603296   F   F   F
  1.5688131473136431  4.5253366031910272 10.8980888554035626   F   F   F
  0.9509913654173476  8.3543003742400241  2.1428795014738649   F   F   F
  4.6930328643952812  2.0294675990862823  6.5041470115210247   F   F   F
  8.3688478366054095 -4.4429186356918429 10.7816690977281091   F   F   F
  1.6219150383637784  2.0115561953607828  4.2215620386218413   F   F   F
  1.6847870488339172  7.0618173283596599 10.7099577214286850   F   F   F
  2.3414720117083609  5.7570771017957938  6.3385621430203081   F   F   F
  0.8731675736007134  5.7867383012340925  8.5305986269269969   F   F   F
  0.8929934907390528  5.8345392793345958  2.1361994824161390   F   F   F
  3.8759770021836810  5.8065514379177197 10.7753376856489851   F   F   F
  3.1257836548081070  7.1378706567351644  2.1734326525452050   F   F   F
  3.1499150502587372 -0.6934951897985051  2.1118653639457885   F   F   F
  5.3715775553112071  0.6951944138890650  8.7210250510267961   F   F   F
  6.1556145967531517  1.9227635484520242  4.2576670560853218   F   F   F
  3.1490603780718440  2.0001853508053986  8.5869523708675288   F   F   F
  1.6071051583191627  1.9759531186928068 10.7501946216308166   F   F   F
  5.4029441488562000  3.2391080958006069  2.1022401189612197   F   F   F
  5.4884570752929713 -1.8410925675591201  8.6268002827175021   F   F   F
  1.6290733628439911  4.4859994292113914  4.3642621783231252   F   F   F
  6.9717697984253961  3.2414665170430501  6.3723148776737810   F   F   F
  8.3952302057287067  3.2174508426651758  4.3636504445183970   F   F   F
  7.6721864107573747 -3.0801260161221147  8.6878031067012973   F   F   F
  5.3850045122676606  5.7845001739776842  2.1435633329278616   F   F   F
  0.2804874745084715  4.6186709707326106  6.4748285816208071   F   F   F
  0.0327161108029217  9.6256375268051908  6.4008555975409802   F   F   F
  0.9586843402432619  0.6893293017903195  2.1862420284940094   F   F   F
  3.8329581494564726  5.9022728918035527  4.2432793420364074   F   F   F
  7.5542268994632389  4.6197766629560926  2.1265468319361815   F   F   F
  4.5831699260596572  4.5227046342982904  6.4536195377244967   F   F   F
  2.3597153175530381  3.3250214807750313  6.4438053409750502   F   F   F
  3.1020247159331880  7.1112146732818573  8.6937574008979031   F   F   F
  3.9169232219479508 -1.9863859788141589  4.1883119292739357   F   F   F
  5.3743444072654807  0.6682371822257139  2.0737589229700060   F   F   F
  0.8988726384251653  3.2503530097710769  2.2182173952525153   F   F   F
  7.6286051276593971 -0.5267204123685955  2.0854810901894894   F   F   F
  6.2157049788968646 -3.2355245469058791 10.7819223711183874   F   F   F
  5.3477266045261569  3.2438847426829875  8.6269063283957070   F   F   F
  0.1433503297583058  7.0978124067704425  6.4494217659016106   F   F   F
  6.9129571266770053 -1.9026886673841907  6.5122899715823728   F   F   F
  8.5371841959462245  0.6416894812624948 10.6708527274904039   F   F   F
  1.7359127119777658  7.0318220152347823  4.1952322844236374   F   F   F
  8.5051915860172009 -1.8808533656417767  4.2927356441341393   F   F   F
  8.4722524254414839 -2.0838565423007687 10.7279627068341288   F   F   F
  0.8920697799350203  3.3155562808908452  8.6146073240777135   F   F   F
  3.1501230236744124  1.9205454002879143  2.1339085033274507   F   F   F
  6.1226031576420565  1.9263073610645673 10.8270367043298261   F   F   F
  7.6635969295048696 -0.7257867667485126  8.5549362708856194   F   F   F
  5.2545312676588125 -1.8942082130599158  2.0897815508362720   F   F   F
  6.0330993255444820 -3.2962338874148394  4.2114863764666568   F   F   F
  5.6453126621238470 -2.1699279867959760 12.1548110000358331   T   T   T
