Pt Pd Ni Co Fe  O 
 1.0000000000000000
     8.9402397008366439   -5.1650231488028941   -0.0098511345226638
     0.0059252925023829   10.3467511160493100   -0.0068757842528773
     0.0076024731317899   -0.0243407989635158   22.9131843172714085
 Pt  Pd  Ni  Co  Fe  O  
  13  16  15  18  18   1
Selective dynamics
Cartesian
  7.4309375290811293 -3.2621986981935662  2.1756128404400439   F   F   F
  8.2805008170762751 -1.8468237028313406  4.4686795932509655   F   F   F
  8.4465926723978395  3.2356097398346262 10.7215353887323950   F   F   F
  8.2681247363559898 -4.5313126768107415  4.4447860176109817   F   F   F
  1.6841668593509063 -0.6640217786109676  4.3296734851670369   F   F   F
  0.8701070115863252  0.6371306440190191  2.1863722166086830   F   F   F
  3.8852871320312867  5.9516726411631833 10.6701681265309478   F   F   F
  6.0830345448691592  1.9197531226853080 10.7341123073020288   F   F   F
  7.5836039859176623  2.0415612940401431  2.0426917548132044   F   F   F
  4.6320838763266901 -0.6860879098702297  6.4242257246014649   F   F   F
  7.5906202693929403 -0.6000663889454785  2.1698901782192039   F   F   F
  6.1450801692196757  2.0181209289577828  4.2881345557494184   F   F   F
  3.1747396299510089  2.0066595845210653  2.1812015096042865   F   F   F
  3.8223921056161982  3.3073705186981486 10.7764166008742883   F   F   F
  3.8833629750826408  3.3635293515682219  4.3069477995891381   F   F   F
  1.6110995220297948  1.9452463823276700 10.7538693447558469   F   F   F
  1.6397092561739073  4.6417099332504224  4.3252959831068933   F   F   F
  2.3142025539651079  0.7043688112808183  6.5521066642030403   F   F   F
  7.6161036086457550  1.9870584271693799  8.5188126479505506   F   F   F
  4.7213017519029696  4.6407613925490061  6.4834030415343280   F   F   F
  2.4349818760639117  5.8779689764536815  6.4922247818814522   F   F   F
  0.2106382244605667  7.1954353791146213  6.4017185471732336   F   F   F
  8.2510835123932580 -4.4654536583182631 10.7511198800627117   F   F   F
  5.4159505725866079 -1.9689498730150619  8.6089120356781610   F   F   F
  6.0854337440577559 -0.7181600640633367 10.8779791299741930   F   F   F
  6.9531748307052021  0.5477951686722777  6.4099473941416765   F   F   F
  4.6570365241648188  1.9948028748192947  6.5506164320345928   F   F   F
  0.9336795737420914  3.3074086808536891  2.1590108999532522   F   F   F
  5.3241007821943649  0.5866367730993849  2.1087076787817121   F   F   F
  2.4356220960622199  8.4204706634010780  6.4760195080560985   F   F   F
  0.9840307863337406  8.3321263610601335  2.0912061873892580   F   F   F
  8.3633848309341587 -1.8598156177078415 10.5605903658867870   F   F   F
  8.3542791333776592  3.2851353734819368  4.2855181412511776   F   F   F
  5.3532573805728809  3.3312329557326112  8.6379501823124265   F   F   F
  3.9242170090007367  5.9773211925596392  4.2733767730235730   F   F   F
  7.6932873749549140 -0.6747572952118119  8.5512126250680591   F   F   F
  3.2035781248014339  4.6155086610861398  2.0851358110337919   F   F   F
  5.3862306780153517  3.4048678968873873  2.1054949953751758   F   F   F
  7.5057638095317145  4.5707723577696742  2.1399824674043622   F   F   F
  3.7378443447600560 -1.8665965900925539 10.6276069534921689   F   F   F
  3.1040816202234747  7.1579653054398564  8.5423448786332496   F   F   F
  3.0996782093395123  1.9829792070896393  8.6440990844403718   F   F   F
  8.3859770170357066  0.7552952062169755  4.2413016743748777   F   F   F
  0.1069600156546521  9.7483928372628252  6.5526144366231573   F   F   F
  5.2857185649401064  0.6564318233006019  8.6467318979368564   F   F   F
  5.2348413654526551 -1.9807525255895018  2.1665975054305773   F   F   F
  6.8724818113149597 -2.0583701399412568  6.5291629455592437   F   F   F
  7.5989519356046040  4.5962314834058766  8.5330243627558922   F   F   F
  0.9459309691471403  5.8639358083402691  2.1349628807519987   F   F   F
  0.9546830912676745  5.7434280631560144  8.6409673991944143   F   F   F
  3.8582639374203058  0.6000353204674106 10.5573955757828077   F   F   F
  0.2353924406113413  4.4236332619592904  6.5947622839782714   F   F   F
  1.0013373139725066  8.5328096133547557  8.5758148320825320   F   F   F
  0.0892654276735307  1.9727796897479659  6.5470588052421297   F   F   F
  7.6803067228555681 -3.2447779027828330  8.5353256050803044   F   F   F
  4.7073969521449115  7.1596293128433803  6.3848700595652259   F   F   F
  5.9850968743186046 -0.7022991693497563  4.2384249354806967   F   F   F
  1.6621718449030676  7.1432187145914554 10.5155397088854290   F   F   F
  6.1043884717560752  4.6360802290258043  4.2454711673861842   F   F   F
  0.8450599937776283  0.6267123902717736  8.6035495773096162   F   F   F
  3.8925817085433914  0.6579657714281764  4.2937968167140816   F   F   F
  6.9387864173204115  5.8921328403296043  6.5636419326860853   F   F   F
  3.1119460477466729  4.4932044876710666  8.5938401846209977   F   F   F
  6.1216275140226228  4.4984903809569898 10.6365102832712548   F   F   F
  5.4783588907301395  5.8260448580932156  8.5789036486965919   F   F   F
  3.1487928012158508 -0.7006472030209189  2.0892036356161028   F   F   F
  2.3640852208369130  3.2721784382302892  6.5039536647141398   F   F   F
  5.2963198691461093  5.8154752645594501  2.1795118908255771   F   F   F
  1.6691866970638787 -0.6797720224145219 10.6017691518693482   F   F   F
  1.5497028065160341  4.6490081577772822 10.6340314122750375   F   F   F
  6.1047869321471371 -3.2366358746702573 10.7165632658835133   F   F   F
  0.8963292316460941  3.1802339166011429  8.5475490496321544   F   F   F
  3.9308955623596189 -1.8846347601005593  4.2572603523887151   F   F   F
  1.6555210873884234  1.9736006693518200  4.3829689243580159   F   F   F
  1.6733244816373489  7.1369986226856437  4.2361562383714375   F   F   F
  3.1503742857125294 -0.6189040879949979  8.6050490135144599   F   F   F
  6.0295297355174275 -3.2109714111211782  4.4035489917112303   F   F   F
  6.9173443746137977  3.3849521683281170  6.4115624084451159   F   F   F
  3.2155023989636753  7.0604427016057798  2.1991635265305725   F   F   F
  8.3574027983402104  0.6211320510377941 10.6211866148068363   F   F   F
  9.8304429536344653  0.7505646785207657 11.7887401880832705   T   T   T
