Pt Pd Ni Co Fe  O 
 1.0000000000000000
     8.9836433797606503   -5.1946067336643678   -0.0193109433859568
    -0.0282322062653919   10.3466559741649142   -0.0057122649007678
    -0.0046752989415466   -0.0227398229419912   22.8996178898490967
 Pt  Pd  Ni  Co  Fe  O  
  17  14  17  17  15   1
Selective dynamics
Cartesian
  8.3714887826805295  3.2333583909758312  4.3397191644101740   F   F   F
  7.5919000217080228  2.0482191038419648  8.4868642538000447   F   F   F
  0.9452713688027726  8.5291952910458253  8.5264164166011494   F   F   F
  4.4977738380326366 -0.6908719787067272  6.3706828939941813   F   F   F
  8.3191101142086445 -2.0833789900220538 10.8310585564579487   F   F   F
  6.9060597250141802 -1.9891868901414007  6.4758737058628855   F   F   F
  4.6899934521659388  1.9725753801765180  6.3670566199411622   F   F   F
  8.4016942184774912 -4.4777733622677589  4.3537761860231043   F   F   F
  8.3720736303813013  0.6610192550669481  4.2587021963079481   F   F   F
  6.0768714260662131 -0.6715840750708825 10.7886056015061698   F   F   F
  5.3760512133649030  0.6055194192616944  8.6009574191774334   F   F   F
  1.7174865448787797  4.5966475681930987  4.2652245495076286   F   F   F
  7.5773056950877660  4.5882519240861406  2.0686467516320883   F   F   F
  3.1157097013087558  4.5487871002391707  2.0523349439488752   F   F   F
  0.9267992125658743  5.8423095117181596  8.5234188050476032   F   F   F
  2.3245970875589923  3.2723648866079533  6.4519141601337759   F   F   F
  0.8011533840070436  3.1995865647604833  8.6190332927821700   F   F   F
  3.0843155917915972  1.8996840289075314  8.6454439208674163   F   F   F
  3.9376377975877452  3.1953446249075461 10.8728982837215451   F   F   F
  6.0696500714832426 -0.6706572342628756  4.1964653317547524   F   F   F
  5.3274999473667712  0.6190710334000954  2.0987816162677446   F   F   F
  8.4097434570037368 -1.9430349854794622  4.2125938943132955   F   F   F
  1.5851335297022486  4.5840929913302508 10.8883298106499158   F   F   F
  3.9098128876425795  5.9140135107715990 10.7405771261432381   F   F   F
  5.3476164927996166  5.9280737341860519  2.0687524424905002   F   F   F
  1.7735425742402713 -0.6294008420700800  4.3491608589778981   F   F   F
  0.9520244743185786  8.3826660628061500  2.0916327224382765   F   F   F
  4.6237683593167507  4.6463477899949623  6.4925314082899908   F   F   F
  0.9547818584461693  0.7713448888497000  2.1271234425908321   F   F   F
  6.0293486305508894  4.5546569839468232  4.3018113872438599   F   F   F
  7.6260549803030360  1.8829618709971352  2.0183546027853700   F   F   F
  3.7967467223464126  0.5581731976081927 10.7466726639070114   F   F   F
  5.3498209208752199 -2.0214763414721615  8.5314283548391643   F   F   F
  7.6062899218794104 -0.6670547761255217  8.5865965268731141   F   F   F
  3.8847878667415476  3.1933585181289561  4.1911167134916925   F   F   F
  6.2347408273516569  4.5148646386364524 10.5943322400143760   F   F   F
  6.1574514640396059 -3.3013899900297847 10.6235308921492777   F   F   F
  3.8518060025974079  5.9581890759427205  4.2886316179753505   F   F   F
  3.1272187094787176  1.9874698237277877  2.1857344182588436   F   F   F
  0.8637786990337102  3.3230574927222403  2.0686267309612298   F   F   F
  7.6012516808861559 -3.1328350661184232  2.0564052204172980   F   F   F
  0.1087237857049789  9.7441664948990478  6.4925670319857671   F   F   F
  1.5853439587945510  7.2470072461227533 10.6661644622509399   F   F   F
  5.3872086755219613  5.8636896288100395  8.5739898447037337   F   F   F
  3.8065589880990585 -1.8839972069904778 10.5821099280772426   F   F   F
  4.5761312249681305  7.1410547088363838  6.3957474134075740   F   F   F
  6.9364600353099117  0.6591322053873007  6.4071869667500803   F   F   F
  1.6988429247410146  7.1394816668320837  4.2827495808831717   F   F   F
  6.9207394309510590  3.2735433508441849  6.3870266253292778   F   F   F
  2.4021993979362608  5.9520481742170102  6.3681691631696058   F   F   F
  6.2156266662255533  1.9877419403849148 10.6540200725450216   F   F   F
  3.9156836027367756 -2.0033849369515728  4.1642048513995045   F   F   F
  3.1980577996409187  4.5968002077203636  8.6372995624232587   F   F   F
  3.1492346075595878  7.1665185531796407  2.1650271123957245   F   F   F
  8.3607181773095558  3.2376873912254420 10.5924945455940271   F   F   F
  8.3231481092727808  0.7528482836084353 10.6353701104961704   F   F   F
  2.3603416879058523  8.2920811120058708  6.3857271833145655   F   F   F
  0.1852368227173058  1.8400175753846459  6.5141780432975134   F   F   F
  0.1190407143360016  4.6206708891520014  6.4149954998959062   F   F   F
  6.0671267789551440  1.9567692213418904  4.2316581801410935   F   F   F
  0.8890140081867303  5.8088607485640935  2.0117688953199111   F   F   F
  3.1964944061282048  7.0973256864594445  8.4986422651844098   F   F   F
  3.8665744857817055  0.7530950190807094  4.2219314855659711   F   F   F
  6.9512130998748294  5.7780322891335381  6.5209756989985168   F   F   F
  1.7403576394621736  1.9755048086237874  4.2659270814440573   F   F   F
  8.3415165714765553 -4.6243796623728342 10.6850518318932100   F   F   F
  0.7993598940587524  0.6558441194872500  8.5755652607643107   F   F   F
  1.6622497493354365 -0.6466239533541829 10.7361193755746189   F   F   F
  2.2814329032567837  0.6722262639990048  6.4245927438234371   F   F   F
  5.2875543001710712 -1.9436150313054972  2.0464689683111388   F   F   F
  7.5385716009160539  4.5881430922552111  8.4854093419834804   F   F   F
  5.3393093742454356  3.2220641105693089  2.1544970202818883   F   F   F
  1.5937915021222742  1.8165963602677138 10.7841687339526207   F   F   F
  5.3700196349691103  3.3421300361996020  8.6380669567065649   F   F   F
  7.5240986513296848 -3.2319469947759067  8.6016583481163043   F   F   F
  3.1829601171150550 -0.7131922566472327  8.5922597607448274   F   F   F
  7.6588315141961356 -0.6974592477568152  2.0279548616661853   F   F   F
  6.0718191355669244 -3.2235748244196607  4.2866339395866992   F   F   F
  3.1614139552335851 -0.6088265013674070  2.1531524940284972   F   F   F
  0.1905595140912974  7.1213522899785033  6.3918875535828708   F   F   F
  9.0369938327158703  2.0173573307092041 11.7982139632622083   T   T   T
