Pt Pd Ni Co Fe  O 
 1.0000000000000000
     9.0439206520053101   -5.2487887356014662   -0.0280310963724700
    -0.0988166905319107   10.3332568937110505   -0.0160674281162532
    -0.0250667875109199   -0.0350784378225837   22.9278617013677071
 Pt  Pd  Ni  Co  Fe  O  
  15  16  17  18  14   1
Selective dynamics
Cartesian
  2.9391986125397294  6.9796703467830890  8.5298142452638448   F   F   F
  4.6927673317540171 -0.6184216409445860  6.3892979069243303   F   F   F
  3.8892808643379539  0.8083201345839708 10.7560925539480916   F   F   F
  7.6603276406781822 -3.3046713327197530  8.5074027305322435   F   F   F
  0.0195338524837228  9.6225611726243638  6.5237650916818959   F   F   F
  8.3814637696776622 -2.0095788595264228  4.2499054162063068   F   F   F
  7.5617089542691058  1.9591679437873353  2.1228561930482375   F   F   F
  3.0689854097449509 -0.6157168874855881  8.6040967070304522   F   F   F
  3.1663766772101445 -0.6190868986335233  2.1844599946185248   F   F   F
  0.8820716726157816  0.6856988419781572  2.2122472106641338   F   F   F
  0.9815356434298765  3.2766682189151033  2.0790394192795119   F   F   F
  0.1815159285061032  4.5874639490603313  6.4889650869563429   F   F   F
  8.4904731101902904 -1.8896644323420597 10.7495313487483060   F   F   F
  8.3997026528668037 -4.6349696767226458 10.7352452843427635   F   F   F
  4.6010042230637271  6.9620109687121703  6.3613215649402450   F   F   F
  5.3474671754903165  0.6992443071898767  2.1770133926981083   F   F   F
  6.9372971355598176  0.7596223160944349  6.4327655138939193   F   F   F
  8.2536940687467624  3.0981391711114705  4.3795968149784796   F   F   F
  3.9063694755992748 -2.0217219248129146  4.2377331629094410   F   F   F
  0.1391449859247073  1.9508393175144227  6.4330889913683116   F   F   F
  1.6347413099225976 -0.6271209528627409 10.8899680662554594   F   F   F
  0.8268061111050231  8.4193732904503378  2.2426108234209252   F   F   F
  7.6136593026209711 -0.6857471487906883  2.0258429528553701   F   F   F
  6.0359671581647820 -3.3572939001394535 10.8046382194963506   F   F   F
  5.2933695567543735  5.7788480479306896  2.1713580902596510   F   F   F
  7.6251855923232190 -3.2938777653191562  2.0559067519812095   F   F   F
  3.8571944201819957  3.2382298059499264  4.2548397565275780   F   F   F
  2.4174310539568773  0.7131157773619927  6.3692865069771560   F   F   F
  6.1338759630935824 -0.5597044773730931 10.8181297166463892   F   F   F
  1.5178850813354436  6.9998006695062207 10.8440063186195861   F   F   F
  5.4061402946747048 -1.9430373006761408  8.5775574183449379   F   F   F
  5.3344290538578303  5.6447926093518275  8.4954786807228331   F   F   F
  0.9515786729431096  5.8508658805028055  2.1746475643786995   F   F   F
  3.8844492504932426  0.6728037928933233  4.2857475894214474   F   F   F
  5.3959452211731618 -1.9773461366039284  2.1122110866890540   F   F   F
  1.6245868522378475 -0.6446795868441031  4.3828677534683305   F   F   F
  6.0379047512439286  4.4283781252796137 10.5188316893256015   F   F   F
  6.1366981739753728  1.9872879239096932 10.5474589435208959   F   F   F
  3.1111224444676675  2.0218196923828007  8.5120491249632675   F   F   F
  5.3444572982515934  3.1746021443074777  8.4756989754990890   F   F   F
  3.1503096058435274  4.5233145073460710  2.0791071187739871   F   F   F
  1.6313075589111288  1.9378837842035148  4.2817219405882092   F   F   F
  4.6256150880713269  4.4458036273383064  6.4235674245323882   F   F   F
  0.8807167618987181  0.6954043442082068  8.6220088124941299   F   F   F
  1.6112867521106111  4.5464471322376214  4.2996003951088326   F   F   F
  7.5547036945374852  4.4022292717648428  8.5450587329393137   F   F   F
  7.6343450837687783  1.9139617196833749  8.5879553039093395   F   F   F
  3.7523180354968044  5.7609741400266063  4.2417737064924044   F   F   F
  4.6281585849956199  2.0169530337119288  6.4265518099120165   F   F   F
  6.2068353134338183 -0.6049219450683978  4.2823309326505568   F   F   F
  0.6997678158587939  5.8035621105205317  8.6700093684847470   F   F   F
  5.3720823235631157  3.2628769858848377  2.1138330586522023   F   F   F
  6.0716678795583183  4.5427963649475549  4.3006917616226961   F   F   F
  6.2108271561107102 -3.3409284491911446  4.3252001945214529   F   F   F
  2.3727187284684672  5.7671134936998554  6.3059715257015645   F   F   F
  6.8065294529584683  5.7130805132668092  6.3563158148954706   F   F   F
  6.9054936758063166 -1.9920849979893926  6.3140809755709464   F   F   F
  7.5024334858961170  4.4763393172917709  2.1343023012254023   F   F   F
  3.8322163734712400  5.5760083390929998 10.5022115163469394   F   F   F
  1.6646195444928644  2.0192846223323904 10.5590133277208729   F   F   F
  3.1540320754947797  7.0725041002831439  2.0654983775040869   F   F   F
  8.2902227805327993  0.6694820257438141 10.5725957518638847   F   F   F
  0.9929882267650197  3.3192605135748745  8.6508952570302160   F   F   F
  2.4229262210502154  3.2930757176487151  6.4497925990949092   F   F   F
  2.2803313912227816  8.3116976428526179  6.3757093962069495   F   F   F
  6.7127186146662279  3.3145647142062078  6.4389759953008374   F   F   F
  3.1163106415060655  4.4668355895395644  8.4064923754413687   F   F   F
  5.3522681612210290  0.7529129163843519  8.5647576114545938   F   F   F
  1.6557797076449348  4.4906046548030787 10.6173681501304564   F   F   F
  8.3852003732695248  0.5316645359415887  4.2590707365887353   F   F   F
  3.8576706764734783 -1.9931457870874190 10.7433995990365982   F   F   F
  3.1694129115570102  1.9997715693693014  2.0277370752421633   F   F   F
  7.6891617388450770 -0.6575503273760072  8.5869773922449948   F   F   F
  3.9106157517075837  3.2643987172895250 10.5330826561586246   F   F   F
  0.7527028310012691  8.3706363869246143  8.6505868130320192   F   F   F
  8.2531141775468981  3.1383611517584327 10.6282253026577784   F   F   F
  8.3425534661018492 -4.6605275881273212  4.2911569204516793   F   F   F
  0.1994981205979878  7.1054687736939703  6.5515673199638194   F   F   F
  6.0130396167092464  1.9198119492665020  4.3117202738523162   F   F   F
  1.5662359472159080  7.0369833951068816  4.4052795776163336   F   F   F
  8.7837824655502352  4.1788514541341621 12.0489135098680649   T   T   T
