Pt Pd Ni Co Fe  O 
 1.0000000000000000
     8.9854612927610127   -5.0959698673116520   -0.0474918411608053
     0.0623368775592936   10.3068071260243670    0.0500466976653703
    -0.0043335099202507    0.0474518559695956   22.9426093011957377
 Pt  Pd  Ni  Co  Fe  O  
  16  15  16  17  16   1
Selective dynamics
Cartesian
  3.9304838165793465  3.3180379359358647  4.3856603023051210   F   F   F
  7.7192644524269545  1.9956588276094644  8.5116359025770034   F   F   F
  1.7357461448957066  4.4907014197880688 10.7003324908888864   F   F   F
  3.1753795903310431  2.0284615013021194  8.5361674702007679   F   F   F
  8.3711675959687586 -4.3809868391392106  4.2424962162629765   F   F   F
  4.6750420006382400 -0.4579960421097162  6.5095035497468867   F   F   F
  2.3960817800676062  8.5078578466146855  6.5705559564782403   F   F   F
  7.5894093244523386 -3.1716951390325234  8.5514763430333112   F   F   F
  1.6557100025833928  7.1592529082189351  4.2957759037439933   F   F   F
  2.4702203873435256  5.8224840937325313  6.5367486619273700   F   F   F
  3.8488537997132437 -1.6589068692666273  4.1894258792579953   F   F   F
  8.3902216313591325 -1.8635399137534712 10.7561759823843524   F   F   F
  5.4445356805892979  3.3979540056187654  8.5736780290913828   F   F   F
  1.6658228374800295  7.1247166254358847 10.7531969551236273   F   F   F
  0.9367653110437796  0.6321375595780379  8.5169174139281836   F   F   F
  6.0371514725403888 -3.0805763948137370  4.2203884763624391   F   F   F
  5.4787024458862117  3.3169112660837357  2.1289933320887124   F   F   F
  6.9366240376805806 -1.8086865808296315  6.4356674494999329   F   F   F
  7.6805364301946168 -3.1031854811837634  1.9799062905239191   F   F   F
  3.0964972009464611  1.9720016803510751  2.1022279652696834   F   F   F
  1.6498146080626126 -0.5145828172476666 10.9041759732261472   F   F   F
  1.6851873156130293  1.9360230987782066  4.3216249238197184   F   F   F
  6.1958895508622556  1.9622993479546647 10.8491772909519302   F   F   F
  6.1508693690994543  4.6121207277942977  4.3375732524590491   F   F   F
  5.4287571541338062  0.6095895488651332  2.1945910801915662   F   F   F
  3.2529825369305603  7.1666890890239676  2.1332786341264387   F   F   F
  6.2559696398688818  4.7080561061885984 10.8182724540189241   F   F   F
  3.9632995767292414 -1.8453657317705316 10.8246979062629158   F   F   F
  8.3625086892698874  3.2753340992434241  4.2458771867676077   F   F   F
  1.6372984198352081  4.5789345715183893  4.2704056882318717   F   F   F
  8.3625761591701799 -1.7271784047472134  4.2100845989051985   F   F   F
  0.1255919648548827  9.7286655613611810  6.4687348115189947   F   F   F
  7.6672033124778629 -0.5393009657910884  8.5346515919718087   F   F   F
  0.9087096485131005  0.6421077532073245  2.1341525879490750   F   F   F
  7.7027979725720224  4.5810653471172555  2.0732668416084046   F   F   F
  3.1837887737558423  4.5825692185912565  2.1708673268614938   F   F   F
  0.9322669189462720  5.8190628032791842  8.5463040654910571   F   F   F
  6.1872569985626624 -0.5544049956041646 10.6080468966367842   F   F   F
  0.1412827991822944  7.1094683747358847  6.4512756860778051   F   F   F
  6.9385481586299136  3.3274397495602361  6.4416866812818849   F   F   F
  8.4313300314388133  0.7071110712395532 10.6430003893472946   F   F   F
  3.9816340631501652  5.8454251650706164 10.6529062869178901   F   F   F
  4.7296198442632873  2.0821932001443106  6.4533368913036417   F   F   F
  6.1478937803552620  1.9445900098199167  4.3703589285739124   F   F   F
  7.7434377771442779  4.5827516373155159  8.5460249332522995   F   F   F
  7.7456701471466634 -0.5103542548291919  2.0895571558703576   F   F   F
  6.1632019602355079 -0.4758269414567654  4.3193733236653458   F   F   F
  5.4208629174704566  0.6324717399294787  8.6566481106578692   F   F   F
  0.1954858552955137  4.5689467644378556  6.5208050911713151   F   F   F
  7.7360332010172312  1.9809766125193580  2.1682126496983138   F   F   F
  0.9320741632208052  3.3648805170269336  8.4730819688180325   F   F   F
  3.9280425348655941  0.7388810936450738 10.6211467602220218   F   F   F
  2.4337179051297513  0.7548353273563341  6.3996810888825015   F   F   F
  0.9072780770025514  8.4634007126007678  2.1712875563655984   F   F   F
  4.7419267277086918  7.1294783681517346  6.4915850194639573   F   F   F
  3.9203602196669021  5.9263273105999348  4.3305076579573862   F   F   F
  5.4646825439370295  5.8927434287349696  2.0534516457991709   F   F   F
  5.3699056163134076 -1.8205903468392874  8.6263523166974458   F   F   F
  6.9121893716189797  5.8338399683306141  6.5038459866041149   F   F   F
  2.3868338957198487  3.2510435783065663  6.5000411011562571   F   F   F
  3.1418272154068370  4.6331437679055867  8.6127109813031186   F   F   F
  1.7162019189357647  1.9986223416015798 10.6383679450093496   F   F   F
  3.2449279209164654 -0.5943834212627923  8.6541804339306108   F   F   F
  0.9242404493804781  3.3752224120832257  2.0096251751549876   F   F   F
  6.0863189379719502 -3.0644975115978066 10.6343695556066518   F   F   F
  3.9901061033252905  0.8085927908830005  4.3820594599900664   F   F   F
  8.4456065113222163  3.3210141799861170 10.6764502663779268   F   F   F
  3.0149944905354560 -0.5924512589886074  2.0063642752831554   F   F   F
  8.4571346473914257 -4.4362959757009230 10.6513001993124217   F   F   F
  0.9189056072419238  5.8471578368447981  2.1609228292361649   F   F   F
  3.9179287497769408  3.2433313456189916 10.7224091561895687   F   F   F
  3.2456642974883252  7.1595246778124215  8.6698874870612457   F   F   F
  0.2266605029391877  1.9926178165713613  6.4458888873686000   F   F   F
  8.3155288133212704  0.7727398539541241  4.2377229001280705   F   F   F
  6.9557322914235398  0.7973876267016903  6.3806063861605038   F   F   F
  5.3484081753603734  5.9527332824684613  8.5169170009392605   F   F   F
  4.7035298861612267  4.6143817857891927  6.4668630987603368   F   F   F
  0.9666260627980637  8.3905273393512978  8.6372163751572533   F   F   F
  5.4605953974953669 -1.8987611784305978  1.9701379023365921   F   F   F
  1.5857967908735815 -0.5714490317053788  4.2564856456167588   F   F   F
  6.6044947355893093 -1.8940438735995790 11.9423478458538419   T   T   T
