Pt   Pd   Ni   Co   Fe                  
   1.00000000000000     
     8.9845955006646090   -5.1242003193560723    0.0030626615203954
     0.0408231510790128   10.3251142875020516    0.0249721806815318
     0.0492075792485035    0.0155292439253716   22.9187682441718970
   Pt   Pd   Ni   Co   Fe
    18    15    16    18    13
Selective dynamics
Direct
  0.6030310033283612  0.1149920044302704  0.0948346360998045   F   F   F
  0.4287390445324988  0.5420584609092245  0.1859352156211855   F   F   F
  0.1874860196267140  0.7729848038207159  0.4698678261798307   T   T   T
  0.1851891714716483  0.2865734072285115  0.4714591569186816   T   T   T
  0.9309123749276056  0.0356915198641301  0.4703107669567700   T   T   T
  0.1935501707285852  0.7917190907377929  0.1847805095626285   F   F   F
  0.1883200322883621  0.0332286382207748  0.4710945930679963   T   T   T
  0.8528325396773516  0.8727730477556794  0.3692851256059118   T   T   T
  0.3452733486805286  0.6196655558472268  0.3771925739493208   T   T   T
  0.9357325385772768  0.5401590304351629  0.1864403218352777   F   F   F
  0.4362090586153784  0.5350304152463139  0.4727281447777158   T   T   T
  0.5970703718885068  0.6067603847459178  0.3672297745015989   T   T   T
  0.6892872464151338  0.7884043091431963  0.1821476887962845   F   F   F
  0.5987659963240651  0.8793258309335360  0.3693018034538804   T   T   T
  0.6808129084493545  0.7834762253393011  0.4716409178818503   T   T   T
  0.2711649972422622  0.7073217791939478  0.2811057769282345   T   T   T
  0.2844510403372208  0.9703539709448298  0.2793121117096191   T   T   T
  0.2692611377685238  0.4483404143913626  0.2814629163992330   T   T   T
  0.9321562344025267  0.2802596213261594  0.1815646632217067   F   F   F
  0.4330884104765858  0.2792484226782008  0.1822134397009521   F   F   F
  0.0171754977817490  0.9502888863253370  0.2742225548599394   T   T   T
  0.3453142183695590  0.3623511819525049  0.0885316068074431   F   F   F
  0.1064508951451754  0.8660816687148988  0.3719387328509360   T   T   T
  0.9312169158974342  0.7724374360846215  0.4743447092244500   T   T   T
  0.1787292560435390  0.2795732011652632  0.1830633590105393   F   F   F
  0.4447616570003652  0.2858180031556264  0.4683480815672670   T   T   T
  0.8520888471902381  0.6223453879303023  0.0902074904390702   F   F   F
  0.0068127940955002  0.1962596336901976  0.2795791388347153   T   T   T
  0.4463960812662666  0.0331686606760377  0.4712425818231610   T   T   T
  0.9258363444583811  0.2902802526281261  0.4748807689110007   T   T   T
  0.8490764094835156  0.6034193192573192  0.3702663242675649   T   T   T
  0.6859837876817565  0.2848460083731368  0.1864506609987799   F   F   F
  0.0882543186199286  0.3616201531465777  0.3750877301551291   T   T   T
  0.1832328079184791  0.5376323553258970  0.1866364951502817   F   F   F
  0.1048048908979098  0.8692896150867355  0.0902619872836468   F   F   F
  0.0933614123783144  0.1058236237979600  0.0933051493035677   F   F   F
  0.1009417346022943  0.6156688510095165  0.0928935700562050   F   F   F
  0.6002615439085304  0.6211441141369747  0.0915449443277723   F   F   F
  0.6860741378376067  0.0365735596256397  0.4644449643923459   T   T   T
  0.4393414524641557  0.7918956532841293  0.1832277572226033   F   F   F
  0.5986717059896307  0.8609955653613639  0.0924612321596001   F   F   F
  0.9403054103827770  0.7947940341358262  0.1816842476445331   F   F   F
  0.8429646319793094  0.1197421503593564  0.3711233444821880   T   T   T
  0.3419839068241401  0.1028450337232556  0.0926199139327579   F   F   F
  0.8537227489921406  0.8726551031028649  0.0907590120605093   F   F   F
  0.6841154958968687  0.5356338132105662  0.1851512385359726   F   F   F
  0.3507904388076800  0.3588774568599392  0.3716007324275545   T   T   T
  0.7647016488078343  0.6962779007674476  0.2749556461987948   T   T   T
  0.0116156424597000  0.6961144024168274  0.2788299808941951   T   T   T
  0.3442371433111617  0.6164304378906706  0.0932244652310388   F   F   F
  0.1810426361078731  0.5332463477329924  0.4686849262791001   T   T   T
  0.5247362963557862  0.4426227358780768  0.2777961578274326   T   T   T
  0.6839447130948315  0.0331943288484950  0.1867488734759206   F   F   F
  0.3551431562016166  0.1235576981817372  0.3727230051428096   T   T   T
 -0.0010933049991402  0.4486166128292214  0.2826611384774689   T   T   T
  0.7589448509593565  0.9524251542945148  0.2763718161734913   T   T   T
  0.5945012442452459  0.1234346164011352  0.3710114091592969   T   T   T
  0.4350127367779647  0.7824816920590038  0.4667819638137778   T   T   T
  0.6078336010317997  0.3729739483338577  0.0921429971113170   F   F   F
  0.5904344963925846  0.3547319670300043  0.3701975314190088   T   T   T
  0.1001693838595230  0.3778639685273575  0.0903605955573070   F   F   F
  0.6911545481493637  0.5236972157911858  0.4639819859598183   T   T   T
  0.5282745237657992  0.9638929159033504  0.2772144051918142   T   T   T
  0.3584033559047920  0.8801822353632640  0.3754900753426878   T   T   T
  0.5261384198596023  0.2102256920775803  0.2830855565952454   T   T   T
  0.8568377421540987  0.3725562056519323  0.0893899145941148   F   F   F
  0.1098357502237179  0.1210852846814658  0.3749631410271539   T   T   T
  0.5277518681857744  0.7097420018639200  0.2766233100693122   T   T   T
  0.9310339482386922  0.0301969690379238  0.1828294415183009   F   F   F
  0.3486919048652339  0.8590261832571073  0.0929681568422893   F   F   F
  0.9366019284963091  0.5331320123610618  0.4665594391911982   T   T   T
  0.0969429533226232  0.6131204012008605  0.3728094053158919   T   T   T
  0.2755573771443964  0.2076519177682687  0.2850340567288199   T   T   T
  0.6858065397824643  0.2865327905166999  0.4601153679907782   T   T   T
  0.7665235163368578  0.4563021705797758  0.2768457937817884   T   T   T
  0.7561744102008046  0.1921981488179393  0.2814236086197030   T   T   T
  0.1820210129885851  0.0297693627681497  0.1807820541823233   F   F   F
  0.8420200750864008  0.3553878985292577  0.3722743245322047   T   T   T
  0.4370743316042009  0.0326992452935571  0.1861594133099089   F   F   F
  0.8476767744128040  0.1060847766210387  0.0917697022584818   F   F   F
 
  0.00000000E+00  0.00000000E+00  0.00000000E+00
  0.00000000E+00  0.00000000E+00  0.00000000E+00
  0.00000000E+00  0.00000000E+00  0.00000000E+00
  0.00000000E+00  0.00000000E+00  0.00000000E+00
  0.00000000E+00  0.00000000E+00  0.00000000E+00
  0.00000000E+00  0.00000000E+00  0.00000000E+00
  0.00000000E+00  0.00000000E+00  0.00000000E+00
  0.00000000E+00  0.00000000E+00  0.00000000E+00
  0.00000000E+00  0.00000000E+00  0.00000000E+00
  0.00000000E+00  0.00000000E+00  0.00000000E+00
  0.00000000E+00  0.00000000E+00  0.00000000E+00
  0.00000000E+00  0.00000000E+00  0.00000000E+00
  0.00000000E+00  0.00000000E+00  0.00000000E+00
  0.00000000E+00  0.00000000E+00  0.00000000E+00
  0.00000000E+00  0.00000000E+00  0.00000000E+00
  0.00000000E+00  0.00000000E+00  0.00000000E+00
  0.00000000E+00  0.00000000E+00  0.00000000E+00
  0.00000000E+00  0.00000000E+00  0.00000000E+00
  0.00000000E+00  0.00000000E+00  0.00000000E+00
  0.00000000E+00  0.00000000E+00  0.00000000E+00
  0.00000000E+00  0.00000000E+00  0.00000000E+00
  0.00000000E+00  0.00000000E+00  0.00000000E+00
  0.00000000E+00  0.00000000E+00  0.00000000E+00
  0.00000000E+00  0.00000000E+00  0.00000000E+00
  0.00000000E+00  0.00000000E+00  0.00000000E+00
  0.00000000E+00  0.00000000E+00  0.00000000E+00
  0.00000000E+00  0.00000000E+00  0.00000000E+00
  0.00000000E+00  0.00000000E+00  0.00000000E+00
  0.00000000E+00  0.00000000E+00  0.00000000E+00
  0.00000000E+00  0.00000000E+00  0.00000000E+00
  0.00000000E+00  0.00000000E+00  0.00000000E+00
  0.00000000E+00  0.00000000E+00  0.00000000E+00
  0.00000000E+00  0.00000000E+00  0.00000000E+00
  0.00000000E+00  0.00000000E+00  0.00000000E+00
  0.00000000E+00  0.00000000E+00  0.00000000E+00
  0.00000000E+00  0.00000000E+00  0.00000000E+00
  0.00000000E+00  0.00000000E+00  0.00000000E+00
  0.00000000E+00  0.00000000E+00  0.00000000E+00
  0.00000000E+00  0.00000000E+00  0.00000000E+00
  0.00000000E+00  0.00000000E+00  0.00000000E+00
  0.00000000E+00  0.00000000E+00  0.00000000E+00
  0.00000000E+00  0.00000000E+00  0.00000000E+00
  0.00000000E+00  0.00000000E+00  0.00000000E+00
  0.00000000E+00  0.00000000E+00  0.00000000E+00
  0.00000000E+00  0.00000000E+00  0.00000000E+00
  0.00000000E+00  0.00000000E+00  0.00000000E+00
  0.00000000E+00  0.00000000E+00  0.00000000E+00
  0.00000000E+00  0.00000000E+00  0.00000000E+00
  0.00000000E+00  0.00000000E+00  0.00000000E+00
  0.00000000E+00  0.00000000E+00  0.00000000E+00
  0.00000000E+00  0.00000000E+00  0.00000000E+00
  0.00000000E+00  0.00000000E+00  0.00000000E+00
  0.00000000E+00  0.00000000E+00  0.00000000E+00
  0.00000000E+00  0.00000000E+00  0.00000000E+00
  0.00000000E+00  0.00000000E+00  0.00000000E+00
  0.00000000E+00  0.00000000E+00  0.00000000E+00
  0.00000000E+00  0.00000000E+00  0.00000000E+00
  0.00000000E+00  0.00000000E+00  0.00000000E+00
  0.00000000E+00  0.00000000E+00  0.00000000E+00
  0.00000000E+00  0.00000000E+00  0.00000000E+00
  0.00000000E+00  0.00000000E+00  0.00000000E+00
  0.00000000E+00  0.00000000E+00  0.00000000E+00
  0.00000000E+00  0.00000000E+00  0.00000000E+00
  0.00000000E+00  0.00000000E+00  0.00000000E+00
  0.00000000E+00  0.00000000E+00  0.00000000E+00
  0.00000000E+00  0.00000000E+00  0.00000000E+00
  0.00000000E+00  0.00000000E+00  0.00000000E+00
  0.00000000E+00  0.00000000E+00  0.00000000E+00
  0.00000000E+00  0.00000000E+00  0.00000000E+00
  0.00000000E+00  0.00000000E+00  0.00000000E+00
  0.00000000E+00  0.00000000E+00  0.00000000E+00
  0.00000000E+00  0.00000000E+00  0.00000000E+00
  0.00000000E+00  0.00000000E+00  0.00000000E+00
  0.00000000E+00  0.00000000E+00  0.00000000E+00
  0.00000000E+00  0.00000000E+00  0.00000000E+00
  0.00000000E+00  0.00000000E+00  0.00000000E+00
  0.00000000E+00  0.00000000E+00  0.00000000E+00
  0.00000000E+00  0.00000000E+00  0.00000000E+00
  0.00000000E+00  0.00000000E+00  0.00000000E+00
  0.00000000E+00  0.00000000E+00  0.00000000E+00
