Pt   Pd   Ni   Co   Fe   
1.0
8.9845955006646090 -5.1242003193560723 0.0030626615203954
0.0408231510790128 10.3251142875020516 0.0249721806815318
0.0492075792485035 0.0155292439253716 22.9187682441718970
Pt   Pd   Ni   Co   Fe   
18   15   16   18   13   
Selective dynamics
Direct
0.6030310033283629 0.11499200443027319 0.0948346360998066    F   F   F
0.42873904453249834 0.5420584609092269 0.1859352156211883    F   F   F
0.178789790055928 0.7850010209053041 0.46886329778039715    T   T   T
0.1905043732244944 0.2825377545509924 0.4703629944685194    T   T   T
0.9422692210725713 0.03399520255423479 0.47494514220151945    T   T   T
0.19355017072858433 0.79171909073779 0.1847805095626257    F   F   F
0.1871858552032302 0.03324283032233085 0.4738252254917266    T   T   T
0.8489444625125034 0.8616513316521943 0.37764155220835594    T   T   T
0.35351223972967966 0.6117833571050817 0.3709210764297852    T   T   T
0.9357325385772781 0.54015903043516 0.18644032183527773    F   F   F
0.4328660180652835 0.5278248633125211 0.4664350765172151    T   T   T
0.5961321571649569 0.6214868530996509 0.37356594025412937    T   T   T
0.6892872464151367 0.7884043091431967 0.1821476887962857    F   F   F
0.5858033194940041 0.8560174942858351 0.3776233482510587    T   T   T
0.6837836470461499 0.7751890434079737 0.4727756528913942    T   T   T
0.2743808766430795 0.6904137836169424 0.2786424308640637    T   T   T
0.2655513768598147 0.9470237957161612 0.28229708631872136    T   T   T
0.26274649028472513 0.4589376489013608 0.2825506678950356    T   T   T
0.9321562344025255 0.2802596213261595 0.18156466322170778    F   F   F
0.4330884104765836 0.27924842267819855 0.18221343970095197    F   F   F
0.021327600965647585 0.9469625904253446 0.27787999210505326    T   T   T
0.34531421836955584 0.36235118195250793 0.08853160680744117    F   F   F
0.10026192521186143 0.858756320630079 0.3806921499350059    T   T   T
0.9514171431833738 0.7910305511258157 0.4707822842229393    T   T   T
0.17872925604353984 0.27957320116526607 0.18306335901054233    F   F   F
0.42579387750222597 0.28041359980372177 0.4706751527087178    T   T   T
0.8520888471902375 0.6223453879303057 0.09020749043907184    F   F   F
0.018714021100857542 0.21096165218784996 0.2814727342270303    T   T   T
0.4272795792468438 0.028904373704433328 0.4704666539596162    T   T   T
0.9358238174215894 0.2867224383637157 0.4719423956525052    T   T   T
0.855509083906683 0.6228549885972253 0.3781369730463415    T   T   T
0.6859837876817566 0.2848460083731379 0.18645066099877675    F   F   F
0.11243072216929757 0.3766276706420547 0.3753026895289697    T   T   T
0.1832328079184797 0.5376323553258978 0.18663649515028521    F   F   F
0.1048048908979117 0.8692896150867364 0.09026198728364337    F   F   F
0.09336141237831659 0.1058236237979593 0.09330514930356627    F   F   F
0.10094173460229712 0.6156688510095166 0.09289357005620182    F   F   F
0.6002615439085301 0.6211441141369742 0.09154494432777377    F   F   F
0.6877717028352233 0.038689099055940986 0.47014871862145347    T   T   T
0.4393414524641591 0.7918956532841299 0.1832277572226026    F   F   F
0.59867170598963 0.8609955653613656 0.09246123215960063    F   F   F
0.9403054103827745 0.7947940341358288 0.1816842476445307    F   F   F
0.8498378444276024 0.12389677975984961 0.3760576624094166    T   T   T
0.34198390682413715 0.10284503372325879 0.09261991393275446    F   F   F
0.8537227489921378 0.8726551031028621 0.09075901206050974    F   F   F
0.6841154958968658 0.5356338132105681 0.1851512385359705    F   F   F
0.3452200340637705 0.37402210863542007 0.3759785070725563    T   T   T
0.767241440265702 0.690349172504363 0.2811250729304631    T   T   T
0.028660433938081237 0.694949123989696 0.2864526657345775    T   T   T
0.34423714331115873 0.6164304378906728 0.09322446523103985    F   F   F
0.18432456307853984 0.53110370433499 0.4677199450069246    T   T   T
0.5122985820738446 0.4518752262762757 0.28180023134651705    T   T   T
0.6839447130948283 0.03319432884849364 0.18674887347591795    F   F   F
0.35014530421306966 0.10888062107455894 0.37643623034407425    T   T   T
0.019141385894096075 0.4505976213119432 0.2806136889045177    T   T   T
0.7596170967798639 0.950149276475252 0.2797185890570002    T   T   T
0.5998226224867697 0.11020865250048002 0.3746599611246099    T   T   T
0.4303962578930287 0.7818753012337243 0.4676096386191129    T   T   T
0.6078336010317995 0.372973948333857 0.09214299711131768    F   F   F
0.6002462673392913 0.37290124462274055 0.37821894254106175    T   T   T
0.1001693838595229 0.37786396852736037 0.09036059555730383    F   F   F
0.6848212594826372 0.5287481527880956 0.4685538460974942    T   T   T
0.5051484077364801 0.9399748346928016 0.28156422185124086    T   T   T
0.33748585216470467 0.8496449357947266 0.3765489864457908    T   T   T
0.5221188449373685 0.1987491310981283 0.2811854054231695    T   T   T
0.8568377421540959 0.37255620565193354 0.08938991459411268    F   F   F
0.10602064584912851 0.12144858034214051 0.3793253192202345    T   T   T
0.5105798203770628 0.6979492844194473 0.2833750926239702    T   T   T
0.9310339482386918 0.0301969690379206 0.18282944151829864    F   F   F
0.3486919048652375 0.8590261832571077 0.09296815684228664    F   F   F
0.9330752389109698 0.5370224979196677 0.47184795327185935    T   T   T
0.11593739972111909 0.6270545993606276 0.3769168857375491    T   T   T
0.2682367573923969 0.19994213391810747 0.2803771191104563    T   T   T
0.6833976750372914 0.28780865503106207 0.4719250359944788    T   T   T
0.7744865896430365 0.44527597523571116 0.27990924277661133    T   T   T
0.7682409180278409 0.20599845943101833 0.2809811700333868    T   T   T
0.18202101298858306 0.029769362768148035 0.1807820541823214    F   F   F
0.8586939773602605 0.37945759808306817 0.37424123326144854    T   T   T
0.43707433160420006 0.03269924529355752 0.18615941330991187    F   F   F
0.8476767744128035 0.10608477662103755 0.09176970225848281    F   F   F
